%chk=gaussian_vee_5.0ang.chk
#p tda(nstates=6, root=1) cam-b3lyp/6-31g* nosymm charge EmpiricalDispersion=GD3

Vertical Excitaion Energy Calculations

0 1
N	20.916695	18.640013	24.730598
C	19.468260	18.429688	24.513161
O	21.358322	19.740788	24.906136
O	21.641565	17.728046	24.346972
C	18.953531	17.170815	24.182524
C	18.582365	19.509436	24.605854
C	17.557100	16.925161	24.033773
H	19.560740	16.274303	24.099072
C	17.263081	19.351334	24.475246
N	18.907503	20.850517	24.833477
C	16.712231	18.064402	24.230589
H	17.146563	15.978709	23.694523
N	16.542063	20.449810	24.597839
O	17.555330	21.387051	24.829920
N	15.387237	17.906616	24.002855
H	14.712268	18.651098	24.122503
H	15.069672	16.976490	23.761686
C	19.029648	17.848284	15.818967
C	18.125496	16.833138	15.498511
C	18.568407	19.125889	15.982265
C	16.795843	17.079031	15.375056
H	18.447592	15.799457	15.413917
N	20.357798	17.513662	15.939291
C	17.208853	19.390257	15.986697
O	19.310514	20.198618	16.345736
C	16.284103	18.388422	15.612258
H	16.172304	16.245522	15.065445
C	21.172836	18.521635	16.216852
H	16.848204	20.392082	16.200420
C	20.649820	19.923319	16.378246
N	14.951218	18.687346	15.522019
C	22.661619	18.286598	16.339630
C	21.524120	20.928650	16.752260
C	14.331338	19.951265	15.937824
C	13.945257	17.646828	15.052642
C	23.519348	19.347717	16.621462
C	23.147461	16.992805	16.114574
C	22.953867	20.737341	16.893583
H	21.166458	21.923012	16.993874
C	14.405385	20.946861	14.771948
H	14.882683	20.360062	16.793575
H	13.309767	19.799192	16.307524
C	13.420452	16.756842	16.231043
H	14.353616	16.996241	14.269451
H	13.108649	18.181519	14.586156
C	24.877409	19.155828	16.757828
C	24.557938	16.792423	16.168636
H	22.520592	16.182379	15.754518
O	23.643391	21.690447	17.223778
H	13.879571	21.842159	15.126024
H	13.778361	20.552235	13.962921
H	15.463938	21.149017	14.566991
H	14.279786	16.232166	16.666544
H	12.631187	16.100517	15.844116
H	12.962444	17.368404	17.018208
C	25.420288	17.841667	16.532724
H	25.524555	19.970778	17.068399
H	24.913725	15.784563	15.976203
H	26.498394	17.711014	16.536522
S	25.323515	19.827318	22.089674
C	25.244116	19.871054	20.252108
C	27.007404	19.286591	22.296400
H	25.513889	18.833868	20.017851
H	24.250586	20.046721	19.821466
H	26.015106	20.541306	19.852427
O	25.248854	21.234116	22.591837
H	27.124504	18.236893	22.000029
H	27.228790	19.363905	23.368044
H	27.679226	19.804276	21.600649
S	23.589617	13.705857	19.062574
C	23.733820	12.389099	17.745985
C	22.057501	14.455507	18.571100
H	24.757986	12.049255	17.548502
H	23.056028	11.602044	18.098902
H	23.335131	12.846922	16.832285
O	23.446301	12.985185	20.387152
H	21.255960	14.003159	19.168028
H	21.853313	14.295927	17.505148
H	22.125343	15.534025	18.759798
S	14.884737	11.513894	24.242004
C	16.310968	12.738160	24.383368
C	15.341789	10.871209	22.547947
H	16.227793	13.312165	25.314503
H	17.192774	12.141458	24.647518
H	16.458939	13.402299	23.522884
O	15.216995	10.361421	25.130995
H	14.573019	10.204530	22.138147
H	16.342270	10.426324	22.615211
H	15.432245	11.722695	21.862223
S	23.823544	24.789978	24.340227
C	22.359907	23.903200	23.670004
C	24.885551	24.459288	22.859861
H	21.490757	23.921299	24.339083
H	22.093428	24.435444	22.748529
H	22.712952	22.866816	23.601637
O	23.407843	26.187447	24.126783
H	25.884066	24.903385	22.955534
H	24.314743	24.756863	21.971579
H	24.918919	23.380648	22.662806
S	9.304606	22.589605	10.584760
C	8.912171	23.449909	12.076382
C	8.805494	23.897896	9.446350
H	7.883925	23.278040	12.417812
H	9.567620	23.103973	12.885160
H	8.978008	24.515625	11.824757
O	10.795884	22.462910	10.540553
H	7.770405	23.980806	9.800089
H	8.942063	23.583956	8.404140
H	9.323501	24.850111	9.614768
S	9.512712	20.537415	13.841685
C	11.233485	20.712364	13.470073
C	9.661309	18.861183	14.767718
H	11.358883	21.020294	12.424678
H	11.625553	21.424820	14.206344
H	11.777176	19.793236	13.721114
O	9.276770	21.513832	14.896708
H	10.698455	18.699867	15.086654
H	9.472339	18.086746	14.014091
H	9.003027	18.611374	15.608947
S	21.506718	28.272228	13.940797
C	21.250385	26.890324	15.055791
C	21.954330	27.279362	12.474921
H	20.605659	27.346258	15.817275
H	20.694489	26.109312	14.522491
H	22.181648	26.502625	15.486884
O	20.142845	28.836536	13.611280
H	21.252007	26.462551	12.267613
H	22.924629	26.829788	12.719473
H	22.096027	27.975027	11.638637
S	27.871767	13.225878	18.211340
C	28.964096	13.754389	16.732050
C	26.692038	14.651102	18.211906
H	29.569462	14.598143	17.085617
H	29.631254	12.927908	16.457758
H	28.333881	14.039980	15.880771
O	27.139126	12.072870	17.557690
H	25.914095	14.429708	17.470825
H	27.159002	15.610144	17.955809
H	26.298498	14.808817	19.223669
S	12.605474	13.335852	18.084255
C	13.823655	13.326956	16.803268
C	13.507398	12.563704	19.437677
H	14.870294	13.411222	17.120836
H	13.798909	12.431604	16.169905
H	13.717797	14.167902	16.106840
O	12.489648	14.781687	18.465445
H	14.179845	13.344561	19.813822
H	14.167054	11.754049	19.101938
H	12.822656	12.296778	20.252104
S	28.294510	19.788054	12.461608
C	28.773752	21.076342	13.694655
C	27.583813	18.608789	13.723044
H	28.986006	20.539965	14.627746
H	29.624781	21.714212	13.425807
H	27.937103	21.742804	13.938090
O	27.074465	20.332510	11.844092
H	26.836941	19.161051	14.306655
H	28.501423	18.205736	14.169078
H	27.124100	17.829233	13.103072
S	28.912125	17.745909	19.012472
C	30.177019	18.682226	19.933187
C	29.693794	18.162367	17.327085
H	30.492279	18.069761	20.786951
H	31.049871	18.976801	19.337564
H	29.768692	19.620016	20.329710
O	29.200638	16.274191	19.246767
H	29.290281	19.103464	16.933493
H	29.396133	17.306852	16.708292
H	30.772135	18.330629	17.437906
S	16.080992	10.923725	12.684632
C	15.056753	11.816623	11.507820
C	14.881485	10.958375	13.969689
H	15.792078	12.003123	10.715406
H	14.244848	11.156996	11.177498
H	14.676565	12.724686	11.991842
O	16.157284	9.497564	12.196430
H	15.414101	10.608271	14.862524
H	13.972355	10.483760	13.580290
H	14.595369	11.989579	14.210851
S	12.068180	24.115725	17.309744
C	12.698691	25.014193	15.801700
C	13.572696	24.357969	18.345301
H	11.921292	25.110964	15.033782
H	13.064695	26.038115	15.946746
H	13.474529	24.386763	15.345832
O	10.953714	24.904387	17.882429
H	13.420448	23.912588	19.336191
H	13.872221	25.411993	18.293074
H	14.361495	23.798414	17.827513
S	20.848522	19.197865	20.779688
C	22.097225	17.861755	20.817343
C	21.876867	20.468658	21.649008
H	22.785215	18.185509	20.026606
H	22.454079	17.617119	21.825418
H	21.615622	16.961973	20.415030
O	20.942682	19.647358	19.342915
H	22.292463	20.061220	22.578896
H	21.277018	21.335680	21.952097
H	22.658583	20.768084	20.940014
S	25.583324	26.992514	14.935094
C	26.638027	28.363523	15.447036
C	25.257938	26.374220	16.538614
H	27.621593	27.946844	15.696794
H	26.705135	29.027914	14.576696
H	26.043945	28.826994	16.244322
O	24.312260	27.634809	14.470253
H	24.584099	25.522558	16.383656
H	24.791222	27.102522	17.213272
H	26.118931	26.038717	17.129835
S	13.583898	15.255704	22.041666
C	11.920835	14.952166	22.766129
C	13.133784	16.840321	21.358292
H	11.135478	15.285369	22.076496
H	11.771991	13.884878	22.971436
H	11.858529	15.329002	23.794495
O	14.516760	15.468969	23.148897
H	12.449479	17.295956	22.084608
H	12.552265	16.623678	20.453686
H	14.002522	17.449732	21.080223
S	26.766998	14.523960	13.480862
C	25.978918	13.372105	14.608643
C	25.313860	14.972088	12.570416
H	26.732567	13.042270	15.334334
H	25.124449	13.752897	15.181605
H	25.705465	12.467136	14.052174
O	27.104706	15.683481	14.373898
H	25.106443	14.211394	11.807707
H	25.368624	15.981022	12.143259
H	24.370588	14.925488	13.128516
S	22.277531	24.476461	18.207535
C	23.367887	25.132275	19.457111
C	21.301939	23.528421	19.323481
H	23.973185	25.865761	18.910282
H	22.811960	25.517736	20.320694
H	24.027781	24.291685	19.704819
O	21.353867	25.548031	17.709835
H	20.265657	23.480089	18.966852
H	21.227573	24.005827	20.308350
H	21.812292	22.565720	19.450581
S	17.702663	24.939592	28.062714
C	16.483019	25.903961	29.037277
C	16.574478	23.608713	27.617727
H	16.591778	26.960793	28.763973
H	15.508231	25.546501	28.683134
H	16.669067	25.786661	30.112009
O	17.797441	25.726883	26.759159
H	16.108135	23.164707	28.505871
H	17.090891	22.742966	27.185055
H	15.820376	24.009979	26.929449
S	17.652617	14.862121	12.109140
C	18.901291	14.857638	10.819089
C	16.186586	14.844201	10.969913
H	19.863144	15.164963	11.247807
H	18.936537	13.831302	10.433344
H	18.563631	15.573181	10.059223
O	17.833757	13.503372	12.774433
H	16.204781	15.698457	10.281931
H	15.193467	14.730081	11.421687
H	16.255396	13.901075	10.413867
S	18.247669	25.643887	22.736048
C	17.490303	24.397789	23.781645
C	19.400974	26.084824	23.982018
H	18.207561	23.842663	24.398716
H	16.771610	24.903631	24.438162
H	16.913830	23.753454	23.106434
O	19.010925	24.808084	21.781210
H	18.903240	26.362116	24.919451
H	19.961929	26.941946	23.589489
H	20.037121	25.223923	24.221970
S	16.813612	23.769905	14.438632
C	17.378607	25.524693	14.343879
C	18.502586	23.117928	14.874635
H	18.132187	25.652943	13.557068
H	16.579803	26.236959	14.103047
H	17.845039	25.738266	15.313538
O	15.953476	23.583958	15.701482
H	18.427618	22.024689	14.823384
H	18.729034	23.256943	15.938968
H	19.352352	23.388708	14.235897
S	15.476132	14.432051	27.803419
C	15.211142	15.564894	26.435583
C	17.040569	15.115751	28.364046
H	15.698421	15.229303	25.511812
H	14.144093	15.493517	26.191204
H	15.641109	16.543848	26.680901
O	14.487167	14.824804	28.925266
H	16.812593	15.995867	28.977909
H	17.639727	15.476297	27.518810
H	17.515804	14.449846	29.094887
S	12.152885	15.262568	12.640454
C	11.666679	14.919886	10.959162
C	10.576715	14.921370	13.507214
H	11.163946	13.947790	10.883678
H	10.973839	15.720964	10.673400
H	12.596386	14.810904	10.387177
O	13.125069	14.144705	12.925790
H	10.882082	15.088263	14.547553
H	10.238728	13.880976	13.425008
H	9.810600	15.647482	13.208486
S	31.215675	16.651182	12.910869
C	30.620832	15.357645	14.096399
C	29.805332	16.234850	11.805069
H	29.699230	14.839376	13.804078
H	31.396091	14.612497	14.313513
H	30.466656	15.908220	15.032618
O	30.819160	17.960329	13.626218
H	28.931890	16.080633	12.450603
H	30.126886	15.407274	11.160762
H	29.588079	17.113924	11.185845
S	25.371223	19.275545	27.906569
C	26.255489	19.706221	26.398605
C	24.144318	18.189566	27.218056
H	27.151577	20.293917	26.633230
H	26.601645	18.825022	25.844460
H	25.586824	20.351526	25.815609
O	26.286285	18.505705	28.796194
H	23.593187	17.683508	28.020287
H	24.668863	17.472158	26.574951
H	23.473089	18.748655	26.554514
S	17.015003	16.066088	20.226168
C	18.503311	16.339252	19.264580
C	15.862699	16.424267	18.763857
H	18.908772	17.358282	19.288881
H	19.345695	15.783122	19.694138
H	18.370533	15.961905	18.243120
O	16.879978	14.547082	20.364317
H	16.239212	15.899204	17.877319
H	15.665837	17.495850	18.635923
H	14.904271	15.953104	19.014542
S	21.819794	14.584528	28.540352
C	20.850212	16.058439	28.515192
C	21.123951	13.878714	27.022217
H	19.826962	15.897337	28.876322
H	21.427612	16.685614	29.205603
H	20.875267	16.620718	27.573582
O	23.268497	15.085272	28.241228
H	21.680523	12.982821	26.720551
H	21.100426	14.644938	26.237513
H	20.077637	13.626459	27.234348
S	23.144043	18.348166	11.287332
C	23.839584	18.462191	12.920172
C	24.678654	18.193010	10.355794
H	23.211601	19.095903	13.558496
H	23.681896	17.487574	13.398359
H	24.851982	18.884024	12.942929
O	22.446465	17.018908	11.280234
H	25.271694	19.113817	10.293974
H	24.361481	17.829638	9.370517
H	25.354820	17.434500	10.769168
S	11.480957	20.771528	19.355959
C	10.483274	20.199757	17.826807
C	11.116959	19.412842	20.516294
H	11.038479	19.383938	17.347654
H	9.494539	19.915607	18.207682
H	10.494549	21.057964	17.143602
O	12.904863	20.618803	18.988344
H	10.091961	19.625294	20.844393
H	11.727484	19.479948	21.425230
H	11.224842	18.419714	20.063005
S	25.254326	15.527788	22.017057
C	26.995100	15.146772	22.236921
C	24.977772	16.100431	23.707926
H	27.131668	14.298361	22.918791
H	27.377083	14.880362	21.243685
H	27.353756	16.120913	22.591639
O	25.168711	16.712282	21.160372
H	23.934156	16.434381	23.655451
H	25.738869	16.849558	23.958830
H	25.086298	15.204523	24.331610
S	13.819500	22.407896	21.709803
C	13.873648	20.669788	22.153820
C	13.824221	22.904272	23.497543
H	12.911630	20.363312	22.582775
H	14.016109	20.142162	21.202650
H	14.710798	20.590979	22.858362
O	15.152746	22.767113	21.150042
H	13.942154	23.991436	23.584555
H	14.704719	22.474194	23.990662
H	12.882372	22.563145	23.944714
S	11.550912	18.233860	24.781616
C	11.383771	17.637173	26.502298
C	10.439898	19.642750	24.902082
H	12.210837	16.955030	26.734791
H	11.450205	18.455156	27.230240
H	10.514360	16.997690	26.698759
O	12.891522	18.859140	24.697561
H	9.426427	19.242413	25.028629
H	10.583280	20.378494	24.101126
H	10.611132	20.084524	25.891487
S	20.292656	20.380808	11.998889
C	20.028538	18.681738	12.451068
C	18.522648	20.807547	12.005107
H	19.930050	18.085802	11.535331
H	20.880688	18.230627	12.974273
H	19.043327	18.506155	12.900451
O	20.928764	20.969912	13.200049
H	17.990944	20.181227	11.278182
H	18.391281	21.871817	11.773845
H	18.138638	20.551462	13.000278
S	20.741505	11.796621	14.855701
C	19.053909	11.247523	14.490492
C	20.968182	13.177260	13.642000
H	18.312840	12.055698	14.523357
H	18.991264	10.767736	13.505967
H	18.792927	10.524966	15.273565
O	20.708771	12.340626	16.272533
H	22.017624	13.477374	13.751582
H	20.352203	14.029720	13.953913
H	20.693813	12.932533	12.608442
S	7.471292	16.893908	17.633486
C	7.795121	15.944399	19.195896
C	5.610478	16.769754	17.670126
H	8.859506	15.708158	19.317087
H	7.565854	16.596769	20.047516
H	7.155683	15.065359	19.343653
O	7.744500	18.387629	17.825193
H	5.259454	15.763903	17.931778
H	5.246198	16.987333	16.658510
H	5.255662	17.526747	18.380398
S	20.742989	22.798077	29.035557
C	21.608189	21.189182	29.008896
C	20.912937	23.060556	27.212929
H	21.541187	20.545094	28.123421
H	22.657299	21.441635	29.206476
H	21.298164	20.619123	29.893389
O	19.311630	22.391026	29.255129
H	21.980469	22.965427	26.978970
H	20.526970	24.057497	26.966856
H	20.354706	22.284521	26.674824
S	27.304796	22.249748	17.098583
C	26.253336	22.976328	18.345215
C	28.220961	23.618652	16.410305
H	26.935265	23.416183	19.083393
H	25.509512	23.703440	17.996710
H	25.790159	22.146303	18.892878
O	28.276138	21.436949	17.863846
H	27.582291	24.276960	15.808536
H	28.943426	23.180168	15.710886
H	28.792068	24.217178	17.130728
S	24.618790	22.301943	14.114193
C	23.128307	23.177118	14.524143
C	24.313446	22.078218	12.321532
H	23.097691	23.963346	13.759732
H	22.329601	22.430449	14.613359
H	23.337765	23.751173	15.435190
O	25.793133	23.166887	14.341606
H	24.710003	22.880461	11.687057
H	23.242378	22.158842	12.098547
H	24.783360	21.159418	11.949519
S	7.901819	19.111998	11.072938
C	9.718702	19.179056	10.576374
C	7.150285	18.125307	9.713952
H	10.098705	18.174078	10.354964
H	9.782421	19.820162	9.688489
H	10.291063	19.534468	11.442106
O	7.740640	18.284353	12.279383
H	6.107437	18.464052	9.747520
H	7.302457	17.096930	10.064232
H	7.710716	18.298746	8.786998
S	15.455553	23.805826	11.239955
C	14.684822	24.697563	9.820609
C	13.832863	22.957207	11.810184
H	15.403182	24.929367	9.024604
H	14.021023	23.948296	9.371856
H	14.137273	25.576841	10.181811
O	16.164303	22.688257	10.563197
H	13.711027	22.122614	11.108745
H	12.950610	23.607927	11.850192
H	14.049590	22.564932	12.811458
S	14.086790	18.493835	10.849546
C	13.663094	19.548500	9.417075
C	15.409378	19.571751	11.408806
H	12.585108	19.484735	9.223976
H	13.949226	20.590590	9.605721
H	14.251459	19.150328	8.581201
O	13.009033	18.858332	11.801416
H	14.958029	20.485928	11.813728
H	16.116344	19.661634	10.574823
H	15.983023	19.146467	12.241556
S	13.212029	22.712917	28.603540
C	12.753125	21.939945	26.962582
C	11.734204	22.210529	29.511480
H	13.474973	22.207996	26.181238
H	12.764600	20.844296	26.909388
H	11.770604	22.301928	26.635433
O	14.333001	21.894789	29.164196
H	11.915719	22.242451	30.592888
H	11.482400	21.165257	29.293743
H	10.930726	22.891815	29.205404
S	17.121683	20.305664	21.114477
C	18.366943	21.577713	21.548914
C	16.842073	20.854225	19.411661
H	18.870155	21.233246	22.460798
H	19.052399	21.578423	20.692434
H	17.907967	22.568039	21.658575
O	17.708870	18.931908	21.100183
H	17.659315	20.792000	18.682516
H	16.494738	21.891930	19.488680
H	16.029787	20.220421	19.034979
S	17.408354	11.192858	17.858677
C	17.626419	12.973974	17.329004
C	17.040413	11.579889	19.580721
H	18.564438	13.442747	17.651144
H	17.566156	12.867220	16.238874
H	16.788345	13.463495	17.840286
O	16.106894	10.855200	17.221817
H	16.859138	10.675489	20.174528
H	16.205854	12.288969	19.644985
H	17.742208	12.209539	20.141464
S	10.629903	12.764238	26.452572
C	10.901590	11.230619	25.404337
C	12.373764	13.244936	26.550894
H	11.597842	10.552542	25.913113
H	9.981475	10.697306	25.135321
H	11.318434	11.477087	24.420002
O	10.099697	13.798990	25.535185
H	12.492055	13.717821	27.533638
H	12.768489	13.750917	25.661182
H	12.893469	12.281813	26.626471
S	18.071844	27.056982	18.074543
C	19.346754	27.669798	19.236303
C	17.650431	25.400377	18.919733
H	19.919661	28.541883	18.897694
H	18.736794	27.830816	20.133762
H	20.091522	26.880583	19.397137
O	16.856661	27.994741	18.347391
H	17.208599	25.667093	19.887751
H	18.613890	24.914343	19.117041
H	16.896015	24.865053	18.330076
S	20.258202	13.114565	23.490957
C	19.356380	13.304720	21.916401
C	21.695007	14.205069	23.076441
H	18.313971	12.963362	21.900099
H	19.148911	14.380285	21.857025
H	19.909115	13.009550	21.015974
O	19.453485	13.835405	24.488802
H	22.133482	13.700445	22.206667
H	22.474503	14.251692	23.846910
H	21.368639	15.199480	22.747747
S	18.174116	19.332850	27.849657
C	16.535635	19.894327	28.073275
C	18.603628	18.957220	29.497561
H	16.411226	20.660936	28.848024
H	15.978651	20.128317	27.157618
H	15.947915	19.011969	28.355120
O	18.125334	18.004686	27.141214
H	17.922735	18.222635	29.944979
H	18.549700	19.954443	29.951479
H	19.617098	18.537889	29.518770

31.618399	15.925578	30.839067	0.268500
32.543484	15.105269	32.101871	-0.506300
32.611446	15.300281	29.473154	-0.130900
31.863935	14.939505	32.946949	-0.130900
32.941490	14.161731	31.708506	0.088600
33.342907	15.769718	32.452358	0.086600
30.307447	15.180883	30.729792	0.074600
32.287136	15.802070	28.553133	0.086600
32.380295	14.230873	29.393488	0.074600
33.649670	15.528778	29.743891	0.088600
34.743031	12.137093	8.438836	0.268500
33.245075	13.094878	8.582963	-0.506300
35.848446	13.467689	7.902409	-0.130900
33.385235	13.926564	9.284431	-0.130900
32.961826	13.517562	7.611100	0.088600
32.383610	12.534781	8.967134	0.086600
35.031895	11.736220	9.879262	0.074600
35.861042	14.181111	8.735648	0.086600
35.478985	13.891714	6.960545	0.074600
36.848324	13.072571	7.684357	0.088600
29.124577	11.600355	12.277009	0.268500
30.789871	10.952402	11.804839	-0.506300
29.049196	11.111330	14.048106	-0.130900
30.692770	9.903372	11.499038	-0.130900
31.156004	11.584085	10.986101	0.088600
31.440941	11.096289	12.675938	0.086600
29.429895	13.098803	12.221050	0.074600
28.846676	10.036524	14.132869	0.086600
28.267670	11.696554	14.548240	0.074600
30.027857	11.400232	14.450805	0.088600
27.242729	1.255606	25.716455	0.268500
27.774536	1.152216	27.417269	-0.506300
28.534489	0.146753	24.972685	-0.130900
28.721392	1.702765	27.355894	-0.130900
27.114426	1.753698	28.054361	0.088600
27.786493	0.087393	27.680723	0.086600
25.956919	0.519941	25.509073	0.074600
28.799974	-0.664408	25.661848	0.086600
29.450979	0.742254	24.878695	0.074600
28.279957	-0.271555	23.991030	0.088600
23.008162	4.345434	8.175991	0.268500
21.427080	3.649462	8.299091	-0.506300
22.736502	5.595461	9.356930	-0.130900
21.581871	2.619986	7.953213	-0.130900
21.107853	3.528151	9.341579	0.088600
20.787077	4.325583	7.718861	0.086600
23.963881	3.415869	8.771999	0.074600
22.338364	5.083529	10.241703	0.086600
21.955336	6.245123	8.943256	0.074600
23.612307	6.204245	9.613361	0.088600
0.244691	27.225880	6.589898	0.268500
0.875771	27.883884	4.965239	-0.506300
-0.479198	25.728086	5.928917	-0.130900
1.458798	28.779964	5.211261	-0.130900
1.449525	27.165728	4.366518	0.088600
-0.008616	28.260761	4.436813	0.086600
1.374650	26.830769	7.429007	0.074600
0.439221	25.262424	5.550675	0.086600
-1.191051	25.764896	5.095060	0.074600
-0.784232	25.098583	6.773954	0.088600
25.433102	1.873121	21.680504	0.268500
24.499805	2.409239	23.199503	-0.506300
24.370880	0.500765	21.047731	-0.130900
25.077217	3.179575	23.725422	-0.130900
23.513596	2.856367	23.023796	0.088600
24.348934	1.508032	23.806524	0.086600
25.336998	2.982344	20.697151	0.074600
24.508629	-0.249952	21.835672	0.086600
24.755596	0.119768	20.093664	0.074600
23.332539	0.833292	20.926563	0.088600
32.980888	35.280418	24.688883	0.268500
33.187340	34.052956	23.283087	-0.506300
31.190662	35.068344	24.696676	-0.130900
34.184162	33.615868	23.419878	-0.130900
32.380459	33.309753	23.284616	0.088600
33.134033	34.573318	22.318830	0.086600
33.570587	34.698120	25.971107	0.074600
31.108610	33.998421	24.924591	0.086600
30.806450	35.436028	23.737198	0.074600
30.753511	35.652382	25.515951	0.088600
19.788660	33.795330	11.355189	0.268500
20.336462	32.043068	11.544860	-0.506300
19.313620	33.834129	9.577315	-0.130900
19.633770	31.409689	10.989463	-0.130900
21.354294	32.070869	11.136622	0.088600
20.331875	31.726034	12.595042	0.086600
18.459692	34.076504	12.035068	0.074600
19.398685	34.821857	9.107669	0.086600
18.333120	33.359207	9.448947	0.074600
19.997139	33.172943	9.030459	0.088600
7.570546	23.224817	30.681339	0.268500
7.490304	24.150404	32.231171	-0.506300
8.602830	24.439760	29.852856	-0.130900
7.123067	23.454973	32.995968	-0.130900
8.435651	24.605379	32.551685	0.088600
6.779981	24.977232	32.107910	0.086600
8.446000	22.095324	31.064262	0.074600
9.543122	24.564283	30.403999	0.086600
8.074182	25.400488	29.822048	0.074600
8.604806	24.195433	28.783417	0.088600
2.484666	9.454431	23.437296	0.268500
0.819510	8.972561	23.589352	-0.506300
2.341179	10.881261	24.495029	-0.130900
0.869672	7.993804	23.096478	-0.130900
0.369791	8.975111	24.589930	0.088600
0.259764	9.723475	23.018192	0.086600
3.328680	8.443832	24.184978	0.074600
1.854776	10.691883	25.459888	0.086600
1.840220	11.656507	23.902205	0.074600
3.310266	11.305373	24.785563	0.088600
3.508485	2.110971	2.237133	0.268500
4.672612	3.299898	3.070827	-0.506300
2.697049	3.332125	1.179363	-0.130900
5.255593	3.695147	2.229801	-0.130900
4.189172	4.194120	3.483212	0.088600
5.299195	2.725039	3.763889	0.086600
2.406659	1.823748	3.228260	0.074600
3.346612	3.641424	0.351223	0.086600
2.570996	4.207830	1.827953	0.074600
1.757844	2.834955	0.907101	0.088600
9.808732	8.736910	28.102358	0.268500
9.746545	7.801764	26.529013	-0.506300
10.268046	7.349863	29.188051	-0.130900
9.151782	6.890707	26.669195	-0.130900
9.276938	8.373877	25.719343	0.088600
10.817943	7.581984	26.444094	0.086600
10.998203	9.610800	27.982538	0.074600
9.397639	6.731451	29.439768	0.086600
10.630130	7.737616	30.148233	0.074600
11.046046	6.782713	28.662249	0.088600
1.950116	22.940760	21.082518	0.268500
2.977601	22.152655	19.871313	-0.506300
3.260133	23.905405	21.891630	-0.130900
3.278409	22.943857	19.173510	-0.130900
3.866113	21.731462	20.357683	0.088600
2.390088	21.335924	19.434050	0.086600
1.042779	23.935797	20.394598	0.074600
2.798200	24.676043	22.521029	0.086600
3.743482	24.518438	21.120928	0.074600
4.005891	23.270327	22.385523	0.088600
23.812122	15.923870	36.369267	0.268500
24.409309	14.369511	35.588551	-0.506300
25.168858	15.981195	37.608379	-0.130900
25.503855	14.425599	35.635841	-0.130900
23.940920	13.496197	36.059021	0.088600
24.102301	14.378936	34.535427	0.086600
24.171221	17.028906	35.417690	0.074600
26.114862	16.012239	37.053837	0.086600
25.141193	15.020282	38.136856	0.074600
25.104004	16.909557	38.189194	0.088600
18.300007	10.846560	9.784991	0.268500
17.666370	9.151674	9.602683	-0.506300
20.032898	10.606757	9.260600	-0.130900
17.943657	8.952515	8.560157	-0.130900
18.048374	8.419420	10.324683	0.088600
16.592747	9.231857	9.813193	0.086600
17.643291	11.524231	8.680537	0.074600
20.087673	11.127741	8.296760	0.086600
20.287060	9.549338	9.116805	0.074600
20.663715	11.119045	9.997508	0.088600
12.000685	6.320345	4.244330	0.268500
11.747816	7.994356	4.801353	-0.506300
13.766400	6.552992	3.889922	-0.130900
12.635698	8.308084	5.364066	-0.130900
11.583705	8.723299	3.998153	0.088600
10.900462	7.986525	5.498012	0.086600
11.998055	5.571421	5.543891	0.074600
13.899120	7.149874	2.979140	0.086600
14.248967	5.576754	3.757667	0.074600
14.225256	7.036440	4.761207	0.088600
29.355114	20.009426	0.820277	0.268500
30.982740	20.176197	1.690410	-0.506300
28.993496	18.276892	1.376548	-0.130900
30.986088	19.881462	2.747069	-0.130900
31.655378	19.458920	1.204116	0.088600
31.502798	21.111214	1.448161	0.086600
28.373182	20.941132	1.511409	0.074600
28.005976	18.193020	1.846839	0.086600
29.843445	17.928535	1.976252	0.074600
28.993254	17.660234	0.469279	0.088600
4.632896	2.354707	32.084812	0.268500
5.961361	2.028085	30.945862	-0.506300
4.867420	4.104157	32.309086	-0.130900
6.851472	2.567285	31.292809	-0.130900
6.118997	0.960626	31.143581	0.088600
5.698422	2.169015	29.890203	0.086600
3.336463	2.156495	31.369814	0.074600
4.928712	4.486550	31.282719	0.086600
5.825739	4.367852	32.773300	0.074600
3.985600	4.376893	32.901882	0.088600
23.914448	11.109742	7.119879	0.268500
24.236307	11.022599	5.334921	-0.506300
24.821716	9.613236	7.580051	-0.130900
23.350653	10.980706	4.688956	-0.130900
24.772297	11.979455	5.358131	0.088600
24.976547	10.224114	5.201221	0.086600
24.861082	12.163972	7.592716	0.074600
24.365990	8.753701	7.073181	0.086600
24.823000	9.521996	8.673250	0.074600
25.828814	9.735948	7.162801	0.088600
9.316644	12.439903	5.833019	0.268500
7.894452	11.299788	6.202946	-0.506300
10.244203	11.589129	4.547649	-0.130900
8.128823	10.735682	7.114132	-0.130900
7.052777	11.924691	6.526196	0.088600
7.644971	10.594859	5.400295	0.086600
8.707810	13.621259	5.204823	0.074600
10.814240	10.738471	4.941143	0.086600
10.951413	12.314990	4.127659	0.074600
9.539762	11.296231	3.759365	0.088600
0.725934	1.702627	34.709969	0.268500
1.868131	0.514677	34.061562	-0.506300
1.746030	3.139200	34.291779	-0.130900
2.779061	0.537741	34.672375	-0.130900
1.468003	-0.502783	33.971676	0.088600
2.131566	0.851007	33.051170	0.086600
-0.438914	1.765787	33.788052	0.074600
2.005437	2.984602	33.237164	0.086600
2.578046	3.262896	34.995945	0.074600
1.123269	4.042017	34.314213	0.088600
5.921560	28.273659	28.972296	0.268500
4.884220	27.017199	28.295139	-0.506300
5.342136	28.020084	30.670033	-0.130900
3.817325	27.129095	28.524542	-0.130900
5.093963	26.922455	27.222551	0.088600
5.140102	26.065458	28.776930	0.086600
7.271572	27.572289	29.111809	0.074600
4.447052	28.652815	30.713463	0.086600
6.238576	28.385492	31.186054	0.074600
5.175014	26.955626	30.875963	0.088600
6.435353	12.558161	9.877798	0.268500
5.944058	11.856550	11.518628	-0.506300
7.647080	13.772264	10.490737	-0.130900
5.520543	10.857206	11.359397	-0.130900
6.650079	11.980066	12.349105	0.088600
5.011380	12.380270	11.762025	0.086600
7.367703	11.601156	9.189821	0.074600
8.569196	13.272978	10.812966	0.086600
7.188890	14.340162	11.309859	0.074600
7.862546	14.432890	9.641881	0.088600
26.704180	4.517327	29.741173	0.268500
28.447361	3.919816	29.590799	-0.506300
26.785994	5.706109	28.317009	-0.130900
28.474211	3.059190	30.270514	-0.130900
28.637829	3.647546	28.545332	0.088600
29.083719	4.727220	29.973618	0.086600
25.747345	3.433625	29.292593	0.074600
27.113207	5.055909	27.496292	0.086600
27.489183	6.518502	28.538294	0.074600
25.766657	6.092683	28.194809	0.088600
7.419919	36.378002	10.931014	0.268500
5.889843	36.403790	9.886867	-0.506300
6.960199	34.964733	12.146039	-0.130900
5.960945	37.205372	9.141334	-0.130900
5.927892	35.445316	9.354613	0.088600
4.923643	36.539246	10.388373	0.086600
8.553489	35.811554	10.192521	0.074600
7.846185	34.671181	12.722463	0.086600
6.546452	34.208599	11.467446	0.074600
6.129345	35.383698	12.727036	0.088600
4.758647	8.035891	14.821859	0.268500
3.599010	8.867014	13.758711	-0.506300
6.194889	8.184198	13.726039	-0.130900
2.627308	8.359182	13.722519	-0.130900
3.515583	9.850264	14.237951	0.088600
3.918148	8.967783	12.714010	0.086600
5.077320	8.980055	15.973202	0.074600
6.395626	9.260771	13.790089	0.086600
6.005313	7.828321	12.705831	0.074600
6.879390	7.521788	14.270169	0.088600
36.219345	22.163733	24.874067	0.268500
35.894119	23.172131	23.343155	-0.506300
36.696278	23.553041	25.910311	-0.130900
36.857487	23.342386	22.846819	-0.130900
35.282204	22.556858	22.672028	0.088600
35.367161	24.094288	23.617672	0.086600
34.877724	21.652340	25.385811	0.074600
36.917297	23.188309	26.921019	0.086600
35.779743	24.101948	26.159462	0.074600
37.476017	24.223856	25.528967	0.088600
13.263585	7.921384	17.530128	0.268500
12.363732	9.509829	17.185820	-0.506300
12.850373	7.951052	19.289345	-0.130900
11.316468	9.457289	17.508139	-0.130900
12.926091	10.249537	17.768906	0.088600
12.377225	9.707948	16.106943	0.086600
12.427186	6.820118	16.937363	0.074600
13.571599	8.564054	19.843842	0.086600
12.791909	6.954751	19.744730	0.074600
11.835980	8.362150	19.362896	0.088600
6.023592	31.632536	32.260632	0.268500
6.620916	32.980019	33.181892	-0.506300
7.135822	31.869513	30.832533	-0.130900
7.706989	32.854378	33.271667	-0.130900
6.473819	33.935059	32.662590	0.088600
6.149872	33.015778	34.171967	0.086600
6.721521	30.474295	32.928577	0.074600
8.131179	32.122253	31.218267	0.086600
6.776057	32.636314	30.135395	0.074600
7.220081	30.856779	30.419409	0.088600
36.621449	16.417601	33.833744	0.268500
37.418022	15.137011	34.778378	-0.506300
36.631100	15.505484	32.211266	-0.130900
38.132244	14.590868	34.149872	-0.130900
37.999596	15.609125	35.579807	0.088600
36.766373	14.320330	35.112728	0.086600
35.244480	16.610243	34.306835	0.074600
36.588448	14.415876	32.331074	0.086600
37.580097	15.814478	31.755926	0.074600
35.783298	15.829161	31.594927	0.088600
23.729515	-0.210619	4.864052	0.268500
23.684471	1.529127	5.375845	-0.506300
23.492432	-0.152727	2.987602	-0.130900
23.879881	1.478304	6.454103	-0.130900
24.515007	1.952047	4.797260	0.088600
22.729198	2.019209	5.150710	0.086600
25.144222	-0.594538	5.060248	0.074600
22.428600	0.044455	2.806524	0.086600
23.721622	-1.123995	2.532056	0.074600
24.095526	0.594286	2.456879	0.088600
7.462667	7.843897	7.984200	0.268500
9.073557	7.414274	7.328327	-0.506300
8.189716	8.754030	9.376759	-0.130900