%chk=diabat_dye1.chk
#p TDA(nstates=6, root=1) charge cam-b3lyp/6-31g(d) nosymm EmpiricalDispersion=GD3 density(transition=1)

Dyes in Solvent

0 1
N	20.961456	18.605639	24.679466
C	19.508715	18.478384	24.511513
O	21.440451	19.699501	25.027885
O	21.598135	17.656759	24.454678
C	18.969360	17.192446	24.239025
C	18.610460	19.544157	24.729181
C	17.605520	16.981070	24.078108
H	19.542313	16.286663	24.063866
C	17.285547	19.369396	24.539190
N	18.901484	20.875772	24.857616
C	16.742432	18.092514	24.197786
H	17.223433	16.016209	23.758030
N	16.546650	20.488934	24.611240
O	17.543613	21.463606	24.872482
N	15.409689	17.932568	23.947374
H	14.743838	18.677032	24.110340
H	15.072648	16.986160	23.825464
S	26.287872	20.122789	23.495508
C	27.865587	19.535151	23.982180
C	26.236803	21.542501	24.569296
H	27.672642	18.655224	24.608213
H	28.335871	19.320950	23.014524
H	28.516314	20.243731	24.509325
O	26.407545	20.526037	22.023733
H	26.380165	21.245916	25.615664
H	25.196138	21.879400	24.486086
H	26.939217	22.253996	24.117853
S	23.428858	14.858429	19.187376
C	23.839527	13.348869	18.301229
C	21.616976	14.984794	18.566324
H	24.825270	13.050760	18.679193
H	23.141792	12.593430	18.683184
H	23.715487	13.431729	17.214418
O	23.443003	14.529223	20.669859
H	20.900753	14.204130	18.850916
H	21.468870	15.279136	17.519979
H	21.402313	15.931201	19.077833
S	15.945019	11.458904	23.298014
C	17.563717	10.712132	23.668253
C	15.674200	10.631130	21.665691
H	18.300365	11.208134	23.024250
H	17.847641	11.014996	24.683668
H	17.575102	9.615192	23.666498
O	14.936928	10.804111	24.170973
H	16.519648	10.760220	20.978697
H	14.835829	11.035015	21.084814
H	15.462347	9.559589	21.767302
S	22.677702	25.246048	24.435278
C	22.068041	23.669422	23.709814
C	24.069468	24.522652	25.409700
H	22.926754	23.177839	23.236139
H	21.678728	23.105001	24.566130
H	21.333708	23.952438	22.945570
O	23.243677	25.915810	23.244356
H	23.954062	24.065504	26.400206
H	24.838833	25.304348	25.430681
H	24.391207	23.807461	24.642633
S	9.390088	19.566906	15.067461
C	10.062832	20.824406	13.865953
C	10.114477	18.222118	14.149225
H	10.336117	20.291172	12.947042
H	9.277669	21.587307	13.795843
H	11.022980	21.241764	14.193579
O	10.173221	19.731945	16.327650
H	10.124191	18.339886	13.058607
H	9.663202	17.326946	14.594671
H	11.162474	18.201801	14.472795
S	28.518278	13.401375	18.475979
C	28.699415	12.281662	17.105673
C	27.790697	14.776234	17.528521
H	29.457434	12.717617	16.443275
H	29.066378	11.366074	17.585714
H	27.815207	12.071861	16.491209
O	27.419922	12.817581	19.373049
H	26.788528	14.535599	17.152805
H	28.536270	15.054470	16.773462
H	27.603985	15.573929	18.258060
S	12.272004	13.826099	18.918777
C	11.727197	13.592804	17.255373
C	13.667367	12.725292	18.753965
H	12.358079	14.102604	16.516790
H	11.691205	12.512962	17.065489
H	10.714536	13.995522	17.129885
O	12.806046	15.205299	18.998323
H	13.520886	11.660091	18.536478
H	14.371327	12.924782	19.571312
H	14.281381	13.106220	17.928560
S	27.222168	19.074791	11.623926
C	27.682508	20.445583	10.535734
C	28.416149	19.277534	12.945463
H	28.438358	20.309177	9.752478
H	26.762568	20.691460	9.991064
H	27.879457	21.285015	11.213942
O	25.878664	19.623756	12.153765
H	29.322367	18.813049	12.537512
H	28.101597	18.776794	13.869436
H	28.603870	20.332920	13.178553
S	28.986967	19.220589	17.492151
C	28.262630	19.536602	19.013414
C	30.688446	19.929111	17.820608
H	29.010265	19.269871	19.770586
H	27.941378	20.583267	19.081957
H	27.361624	18.938190	19.196428
O	29.269936	17.786777	17.446009
H	30.753304	20.986595	18.105104
H	31.328789	19.766308	16.944899
H	31.211962	19.307663	18.557592
S	16.198202	10.230474	12.333366
C	14.834570	9.022243	12.528087
C	15.705126	11.233215	13.772039
H	14.776218	8.666597	13.564197
H	13.880814	9.392924	12.132674
H	15.158161	8.220762	11.852561
O	17.505844	9.513729	12.645630
H	14.825621	11.830960	13.502628
H	16.447611	12.040466	13.793787
H	15.544334	10.655446	14.690591
S	11.264221	24.652588	17.188864
C	11.439361	22.854317	16.993170
C	13.036506	24.739365	17.643572
H	10.574926	22.352184	16.541483
H	12.281806	22.776371	16.294874
H	11.698947	22.374325	17.944818
O	11.222652	25.302273	15.831083
H	13.175445	25.805958	17.859175
H	13.601433	24.387707	16.771444
H	13.192572	24.149475	18.555208
S	22.227592	18.239695	20.976000
C	23.968180	18.647039	20.623566
C	21.798031	19.763441	21.733971
H	23.969112	19.571167	20.032475
H	24.397608	18.760374	21.626638
H	24.434870	17.821783	20.071705
O	21.638573	18.148375	19.598242
H	22.387075	19.964184	22.637371
H	20.731216	19.700432	21.981657
H	21.798223	20.565378	20.985434
S	24.131399	27.318413	14.759219
C	25.927549	27.611115	15.029060
C	23.840937	26.642307	16.448658
H	26.352770	28.087402	14.137013
H	26.186602	28.397087	15.749159
H	26.462706	26.726517	15.395833
O	23.553335	28.650826	14.742504
H	23.676203	27.545601	17.048922
H	24.676615	26.038891	16.824078
H	22.956751	25.998051	16.367657
S	13.634216	15.015239	22.236977
C	12.392662	13.718988	22.688030
C	12.352570	16.311295	21.990866
H	11.644939	13.641300	21.889103
H	12.988518	12.798461	22.656446
H	11.934589	13.872922	23.672857
O	14.303003	15.435428	23.549290
H	11.740357	16.375238	22.898893
H	11.633330	15.929622	21.255726
H	12.999633	17.152157	21.712172
S	26.126116	14.202841	13.134127
C	24.454203	14.611181	12.828799
C	26.729694	15.920868	13.154688
H	24.031006	15.345109	13.525693
H	24.321285	14.883948	11.774598
H	23.860275	13.709933	13.024802
O	26.147556	13.716342	14.575809
H	26.255316	16.494665	13.960381
H	26.451660	16.383425	12.199624
H	27.825600	15.960536	13.183455
S	21.885551	24.368118	18.547689
C	23.240732	25.047150	19.485069
C	21.073393	23.605146	19.977186
H	23.912615	24.269361	19.868513
H	23.922941	25.584883	18.815113
H	22.907818	25.789097	20.221348
O	21.045300	25.541861	18.193254
H	21.544397	22.624933	20.121250
H	20.017393	23.407928	19.754974
H	21.117123	24.294262	20.829603
S	16.966715	25.536953	29.353409
C	16.325953	24.108608	28.571875
C	17.401232	24.635605	30.858023
H	15.976819	24.573698	27.641710
H	17.201492	23.467724	28.410294
H	15.522527	23.658955	29.168303
O	18.099873	25.848484	28.497314
H	18.009806	25.363119	31.409178
H	17.846489	23.693184	30.515974
H	16.508255	24.339596	31.422274
S	17.047638	15.042033	12.385850
C	18.529108	14.665443	11.370581
C	15.838771	14.015410	11.546119
H	18.176882	14.659635	10.331676
H	19.378717	15.330849	11.567582
H	18.798361	13.620905	11.570209
O	17.224087	14.308909	13.652952
H	16.401491	13.114116	11.273333
H	15.456985	14.625799	10.718427
H	14.967521	13.828649	12.186004
S	18.394178	25.600538	23.749208
C	16.619284	24.961090	23.708590
C	18.886305	25.066427	25.367979
H	16.547625	23.902901	23.988779
H	16.020781	25.500326	24.453192
H	16.191015	25.160706	22.718563
O	19.132799	24.881702	22.719645
H	18.443174	25.760649	26.092619
H	19.963736	24.968365	25.549477
H	18.453478	24.067289	25.501375
S	18.068501	23.204407	15.522038
C	16.922359	24.589640	15.143228
C	19.515915	24.264431	15.692410
H	17.038162	24.918106	14.102983
H	15.876450	24.258841	15.135997
H	16.931471	25.461248	15.809278
O	17.675615	22.869165	16.976027
H	19.192734	25.160234	16.236916
H	19.795111	24.554752	14.672031
H	20.297834	23.728424	16.244413
S	16.799938	14.164513	27.790581
C	16.198919	13.154629	26.502075
C	16.459192	15.789581	27.042883
H	16.373186	12.109051	26.784571
H	15.106636	13.207657	26.415401
H	16.610931	13.318771	25.498720
O	15.733720	13.993141	28.835751
H	15.601880	15.587234	26.389065
H	17.339090	16.138012	26.488098
H	16.245283	16.517811	27.834925
S	12.395327	13.453991	13.253290
C	12.181303	12.695637	11.632985
C	10.867636	14.439770	13.250557
H	11.205456	12.292858	11.334822
H	12.255447	13.543755	10.941170
H	13.040907	12.033245	11.472607
O	12.170465	12.385361	14.268797
H	10.059826	13.703152	13.159744
H	10.842865	15.195629	12.455902
H	10.848211	14.772461	14.295711
S	32.732479	16.240662	14.662329
C	31.225039	16.969151	15.305531
C	32.022892	15.434921	13.202128
H	31.390789	17.538834	16.228243
H	30.822729	17.632912	14.530304
H	30.500784	16.187817	15.567037
O	33.523872	17.361782	14.017254
H	32.859676	15.426743	12.492817
H	31.167410	16.046200	12.889233
H	31.749376	14.446827	13.592335
S	26.190845	21.606228	30.144760
C	27.480814	20.383335	29.816017
C	25.237000	21.466358	28.568153
H	28.291975	20.699528	30.483437
H	26.986786	19.492493	30.223143
H	27.869747	20.360214	28.790535
O	25.197388	21.034962	31.108633
H	24.639643	22.385418	28.524597
H	24.617809	20.561241	28.540361
H	26.027874	21.396523	27.811152
S	17.067827	16.232073	20.656921
C	18.622499	16.895561	19.978403
C	16.117678	16.263424	19.085817
H	19.401621	17.008951	20.742290
H	19.047373	16.183876	19.259796
H	18.461473	17.872011	19.505083
O	17.241079	14.800398	20.991039
H	15.800000	17.292812	18.878832
H	15.323571	15.529599	19.271032
H	16.835291	15.890790	18.344473
S	21.795443	14.707344	28.012424
C	21.524694	15.187637	29.730188
C	20.432291	15.804443	27.356247
H	22.218813	14.675453	30.407885
H	21.566584	16.283802	29.738974
H	20.592314	14.741570	30.097752
O	23.096273	15.378937	27.740555
H	20.640566	15.865067	26.280910
H	20.398043	16.749310	27.912542
H	19.481688	15.289093	27.541082
S	22.356516	17.978649	11.147290
C	22.832727	18.349972	12.900786
C	24.017065	17.885124	10.378128
H	23.260233	17.448196	13.356259
H	23.515333	19.188042	13.088147
H	21.869921	18.578953	13.374052
O	21.832506	16.587475	11.256954
H	24.444323	18.890442	10.277158
H	23.816160	17.697720	9.316090
H	24.692564	17.118305	10.776997
S	13.079020	20.821291	20.590815
C	12.282663	19.431553	19.729971
C	14.544851	19.990973	21.251516
H	13.012350	18.960506	19.059839
H	11.956722	18.623913	20.396971
H	11.445013	19.787756	19.117701
O	13.689959	21.665016	19.536489
H	14.948805	20.570112	22.091055
H	15.239140	19.884918	20.408827
H	14.148659	19.016001	21.561163
S	25.662296	15.616661	22.810560
C	26.181208	13.830776	22.962900
C	24.100782	15.549160	23.741213
H	26.630808	13.642746	23.945711
H	25.209965	13.349777	22.793383
H	26.864031	13.609184	22.133410
O	26.670732	16.437496	23.568792
H	23.762821	16.588345	23.837557
H	24.186436	15.035915	24.706953
H	23.366665	14.973858	23.163706
S	12.807677	24.072849	24.843920
C	13.500507	22.740606	23.645737
C	13.116882	23.330524	26.486403
H	12.677511	22.079384	23.347630
H	13.788728	23.329367	22.766134
H	14.307401	22.178556	24.131971
O	13.681537	25.316885	24.704052
H	12.711192	24.015583	27.241060
H	14.186867	23.176191	26.672745
H	12.587757	22.373417	26.572306
S	25.455286	17.989395	27.488894
C	24.169163	18.377312	26.262575
C	26.004541	16.435913	26.734585
H	24.729818	18.650124	25.359999
H	23.470163	17.534582	26.194643
H	23.569912	19.232412	26.598892
O	26.650484	18.829250	27.159397
H	26.747526	16.682463	25.966084
H	25.082539	15.923218	26.433826
H	26.534008	15.921064	27.545759
S	11.766487	19.115387	24.547077
C	12.178565	17.515888	25.437412
C	11.144133	19.918325	26.042564
H	13.011821	17.640703	26.139912
H	11.271846	17.283331	26.009417
H	12.364268	16.679604	24.752176
O	13.136642	19.732609	24.316010
H	10.825597	20.961519	25.925537
H	11.971889	19.889349	26.761862
H	10.373659	19.342642	26.570168
S	18.755331	19.908028	11.970331
C	18.722288	18.022045	11.859488
C	16.996946	20.092529	12.416792
H	19.769381	17.721756	11.729727
H	18.271788	17.634560	12.781610
H	18.143541	17.804462	10.953325
O	19.417818	20.259823	13.214991
H	16.752489	21.109055	12.748934
H	16.820955	19.325821	13.181379
H	16.316034	19.838058	11.595194
S	20.905760	12.129292	14.821459
C	19.271521	11.727481	14.163694
C	21.115698	13.662135	13.965050
H	19.362757	11.627553	13.075076
H	18.916735	10.751686	14.517757
H	18.674143	12.631237	14.336247
O	20.739569	12.417191	16.338493
H	21.372538	13.674180	12.898606
H	21.793596	14.348414	14.487432
H	20.151236	14.097873	14.253761
S	8.046437	16.204712	17.613245
C	9.634442	16.900166	18.076044
C	8.367009	14.562599	18.433064
H	10.006452	17.471069	17.216339
H	9.468163	17.629997	18.877983
H	10.337502	16.104294	18.351177
O	6.984647	16.951420	18.414936
H	7.456227	14.378345	19.016104
H	9.281533	14.549610	19.038773
H	8.433465	13.826889	17.622065
S	20.939669	20.989166	29.342060
C	20.726835	19.259254	28.742569
C	20.849333	21.702599	27.666519
H	21.607740	18.916115	28.186081
H	20.705980	18.749241	29.713577
H	19.796522	18.949774	28.250486
O	19.652678	21.341074	30.021280
H	20.594431	22.758188	27.821989
H	20.063562	21.223976	27.069117
H	21.791540	21.676823	27.105276
S	27.626587	23.064148	14.872070
C	26.255209	21.965435	14.475583
C	27.075850	23.440327	16.598343
H	26.394667	21.664616	13.429891
H	26.302872	21.114000	15.165653
H	25.378325	22.624493	14.464367
O	28.844284	22.243620	14.813465
H	26.433748	24.329529	16.618963
H	27.892105	23.566978	17.320215
H	26.596701	22.523043	16.962234
S	23.259081	23.555450	12.405028
C	23.764933	22.053448	11.727518
C	22.315054	22.730164	13.746412
H	22.933603	21.414680	11.404596
H	24.327642	22.224609	10.801522
H	24.344625	21.455490	12.441531
O	24.448961	24.201733	12.998056
H	23.042807	22.287224	14.437490
H	21.708693	21.929806	13.304639
H	21.709642	23.476112	14.275990
S	13.983533	21.944555	11.277761
C	13.897757	23.264675	12.534067
C	12.796566	22.657917	10.083078
H	13.949574	24.237988	12.030684
H	12.931486	23.142027	13.038733
H	14.727660	23.214861	13.249743
O	15.344233	22.118340	10.690435
H	11.835893	22.788412	10.596384
H	12.593558	22.039299	9.200182
H	12.994694	23.694714	9.784399
S	25.718000	9.320423	16.155346
C	25.486677	9.452148	17.981865
C	25.305365	10.967640	15.872344
H	25.561428	8.480930	18.486401
H	26.227781	10.131435	18.420891
H	24.521858	9.948582	18.143404
O	27.170818	9.229965	15.861657
H	25.543184	11.700359	16.653357
H	24.227747	11.048038	15.683433
H	25.679066	11.354340	14.916195
S	13.186649	17.315725	10.589458
C	11.939280	18.305311	9.903708
C	14.582029	18.196304	9.819091
H	10.966335	17.870447	10.163861
H	12.033720	19.265892	10.425030
H	12.042150	18.321121	8.811656
O	13.193043	17.710901	12.059772
H	15.580175	17.802454	10.047106
H	14.624193	19.261322	10.078650
H	14.537138	18.149731	8.723999
S	12.563278	28.110378	15.635728
C	14.062698	27.204243	15.055306
C	13.133339	28.561438	17.266718
H	13.656235	26.423243	14.400903
H	14.611603	27.993910	14.527535
H	14.642143	26.740395	15.863082
O	12.638252	29.411243	14.914130
H	12.382751	29.232805	17.701778
H	14.119148	29.041473	17.232765
H	13.301384	27.725611	17.957054
S	18.661764	20.855007	21.239038
C	19.088358	20.543278	19.507750
C	17.261084	22.061077	21.068224
H	18.339848	19.946026	18.972551
H	19.003740	21.550068	19.080412
H	20.083391	20.095882	19.393034
O	18.098055	19.502865	21.577410
H	17.596300	23.097393	20.937521
H	16.667381	22.021313	21.989824
H	16.677828	21.639210	20.240427
S	17.759155	11.566719	17.894798
C	17.495880	13.215473	16.977657
C	18.256083	12.279884	19.523613
H	18.410929	13.663101	16.570568
H	16.740355	12.894650	16.249878
H	16.917032	13.972164	17.521502
O	16.402794	10.951847	17.999624
H	18.971855	13.107914	19.449854
H	18.615374	11.515511	20.223648
H	17.350489	12.680122	19.995968
S	16.097586	26.456196	18.616610
C	17.889944	26.891232	18.891695
C	16.061701	24.961575	19.641989
H	17.786610	27.857567	18.382843
H	18.228474	27.156120	19.900972
H	18.580900	26.152824	18.466553
O	15.416203	27.477592	19.405998
H	16.794716	25.049427	20.453388
H	16.381855	24.147709	18.979765
H	15.017904	24.749729	19.904699
S	28.164389	24.000790	22.031946
C	26.469564	24.588535	22.307093
C	28.058966	23.641850	20.283598
H	26.365095	24.907406	23.351515
H	26.468241	25.551769	21.782129
H	25.696630	23.841560	22.087965
O	28.903341	25.283985	22.133661
H	27.479708	22.714146	20.198568
H	29.110441	23.710690	19.978521
H	27.517954	24.433056	19.750017
S	19.997784	13.142628	24.002663
C	20.366598	14.076935	22.480158
C	21.728539	13.019321	24.538221
H	19.421017	14.420368	22.042738
H	20.948458	14.948761	22.803848
H	20.920752	13.434322	21.784910
O	19.480124	14.139744	25.019823
H	21.719707	12.724838	25.594915
H	22.149939	14.028728	24.454985
H	22.134382	12.205574	23.924614
S	16.215902	20.133717	27.887384
C	14.604126	19.438007	27.378004
C	15.884546	20.127357	29.588743
H	14.529187	19.303150	26.291906
H	14.301485	18.531120	27.915934
H	13.964835	20.287693	27.647738
O	17.243849	19.035622	27.695078
H	15.483397	19.128250	29.799147
H	15.098062	20.852364	29.832083
H	16.787363	20.503132	30.085859

19.084835	17.876791	15.823482	0.000000
18.216440	16.832956	15.457412	0.000000
18.581606	19.145424	16.047571	0.000000
16.827187	17.078163	15.314877	0.000000
18.530174	15.816013	15.241087	0.000000
20.376543	17.524883	15.949326	0.000000
17.204453	19.383375	16.057680	0.000000
19.358990	20.186745	16.400257	0.000000
16.324133	18.373144	15.608990	0.000000
16.169285	16.261684	15.032166	0.000000
21.196125	18.527113	16.263105	0.000000
16.908337	20.400915	16.295010	0.000000
20.695782	19.903872	16.486969	0.000000
14.909368	18.709267	15.590669	0.000000
22.654707	18.260336	16.371962	0.000000
21.554167	20.925056	16.721746	0.000000
14.376658	20.032202	15.948103	0.000000
13.927648	17.750683	15.075039	0.000000
23.503407	19.368811	16.683260	0.000000
23.165695	17.029749	16.153788	0.000000
22.997000	20.740145	16.921230	0.000000
21.160494	21.889702	17.020971	0.000000
14.356997	21.005333	14.789221	0.000000
14.969801	20.322107	16.824200	0.000000
13.339230	19.930435	16.289854	0.000000
13.428572	16.784998	16.188690	0.000000
14.435501	17.101862	14.350797	0.000000
13.085035	18.304575	14.643046	0.000000
24.876961	19.093555	16.799765	0.000000
24.538523	16.792292	16.249231	0.000000
22.489252	16.223663	15.885373	0.000000
23.770363	21.644163	17.263462	0.000000
13.973275	21.965347	15.156011	0.000000
13.721149	20.643423	13.971829	0.000000
15.384212	21.196785	14.455181	0.000000
14.252887	16.198641	16.613073	0.000000
12.702986	16.074175	15.774361	0.000000
13.022462	17.467251	16.945669	0.000000
25.449823	17.858246	16.508524	0.000000
25.490005	19.928379	17.126324	0.000000
24.951191	15.810497	16.036673	0.000000
26.527744	17.765366	16.602640	0.000000
33.631618	13.376846	9.880284	0.268500
31.951094	12.873837	10.362632	-0.506300
33.978481	12.067124	8.733607	-0.130900
32.005177	12.148457	11.183791	-0.130900
31.401136	13.773526	10.665145	0.088600
31.303862	12.454706	9.582351	0.086600
33.346996	14.582383	8.969575	0.074600
33.555614	11.111597	9.067613	0.086600
35.038296	11.816991	8.600844	0.074600
33.554028	12.470511	7.805961	0.088600
28.223677	10.388306	12.600788	0.268500
29.695276	9.877121	11.639304	-0.506300
28.972368	11.908947	13.251678	-0.130900
30.519585	9.664490	12.331197	-0.130900
29.433870	8.947254	11.119274	0.088600
29.914007	10.624966	10.867101	0.086600
27.122704	10.909367	11.730013	0.074600
29.654448	12.312130	12.492990	0.086600
29.398846	11.710049	14.242620	0.074600
28.213333	12.669151	13.473849	0.088600
18.808498	33.101913	13.080061	0.268500
19.435711	31.805807	14.038580	-0.506300
18.872282	32.155670	11.507811	-0.130900
19.416632	32.016197	15.115049	-0.130900
18.821957	30.897619	13.994886	0.088600
20.419916	31.493216	13.668394	0.086600
17.364262	33.192722	13.368120	0.074600
19.726233	32.460354	10.890276	0.086600
17.914120	32.484074	11.086519	0.074600
18.744133	31.100760	11.780115	0.088600
8.042497	23.587898	30.897385	0.268500
9.065129	24.563145	29.740913	-0.506300
6.431863	23.718010	29.997723	-0.130900
8.584310	25.476662	29.369831	-0.130900
10.057115	24.805454	30.141739	0.088600
9.140958	23.882687	28.883801	0.086600
8.416554	22.130905	30.829800	0.074600
5.722936	23.171593	30.631954	0.086600
6.609269	23.267365	29.013416	0.074600
6.108319	24.764763	29.942627	0.088600
10.498363	8.593090	29.004263	0.268500
9.245375	8.559486	27.796919	-0.506300
10.770757	6.863922	29.451040	-0.130900
9.646111	7.888889	27.026773	-0.130900
8.359690	8.055538	28.203131	0.088600
9.219344	9.626434	27.543215	0.086600
11.757616	8.986275	28.215559	0.074600
11.065482	6.366154	28.518965	0.086600
9.826493	6.429214	29.801474	0.074600
11.615476	6.837669	30.150450	0.088600
18.502653	10.531962	9.795336	0.268500
18.793493	9.373512	8.382174	-0.506300
20.198259	10.158629	10.691217	-0.130900
19.798727	9.552430	7.981059	-0.130900
18.660486	8.337469	8.717333	0.088600
18.114614	9.578466	7.545199	0.086600
18.603876	11.927665	9.243013	0.074600
20.165548	10.294830	11.779234	0.086600
20.889585	10.749221	10.077475	0.074600
20.585428	9.161176	10.449133	0.088600
23.647150	11.792942	6.705672	0.268500
23.250298	12.358150	5.037481	-0.506300
22.194431	10.711048	6.986309	-0.130900
23.842176	13.237881	4.756113	-0.130900
23.382732	11.489338	4.380954	0.088600
22.230165	12.757824	5.092262	0.086600
24.848251	10.901928	6.664993	0.074600
21.463543	11.022900	6.230029	0.086600
21.858810	10.839787	8.022743	0.074600
22.591166	9.698055	6.845421	0.088600
10.523301	12.004161	6.866095	0.268500
10.040490	12.009617	8.545607	-0.506300
9.758470	10.400792	6.444204	-0.130900
10.527860	12.910676	8.938009	-0.130900
8.958459	11.935445	8.710272	0.088600
10.517381	11.088385	8.902426	0.086600
9.716531	12.994970	6.131941	0.074600
10.243085	9.705413	7.140631	0.086600
10.103475	10.196370	5.423132	0.074600
8.671762	10.478261	6.572561	0.088600
8.339944	14.941780	10.868201	0.268500
6.979978	14.543110	9.694089	-0.506300
7.310380	14.906067	12.340480	-0.130900
7.383721	13.872108	8.925871	-0.130900
6.134637	14.102177	10.236660	0.088600
6.735246	15.461269	9.145909	0.086600
9.136228	13.669090	10.985139	0.074600
6.585599	15.688389	12.083442	0.086600
7.932508	15.147404	13.211182	0.074600
6.919286	13.897057	12.520329	0.088600
4.998817	7.350800	15.047964	0.268500
6.525856	6.651283	15.628574	-0.506300
5.105812	8.948017	15.865272	-0.130900
6.652649	5.783710	14.969285	-0.130900
7.392090	7.314850	15.515733	0.088600
6.392906	6.365383	16.679285	0.086600
5.239151	7.715744	13.601671	0.074600
5.022247	8.825836	16.952238	0.086600
4.391342	9.706329	15.521914	0.074600
6.069260	9.382637	15.571536	0.088600
13.525052	7.994918	17.170069	0.268500
12.575471	9.351933	16.448555	-0.506300
12.938252	8.192119	18.865591	-0.130900
12.787744	9.531949	15.387451	-0.130900
11.545728	9.009961	16.610086	0.088600
12.912278	10.219240	17.029720	0.086600
12.926221	6.658055	16.716002	0.074600
11.875779	8.461082	18.912685	0.086600
13.514962	8.928576	19.438694	0.074600
12.974729	7.177256	19.280479	0.088600
32.586304	23.314812	10.448766	0.268500
31.829033	22.732815	8.940141	-0.506300
31.206133	24.136475	11.287166	-0.130900
31.653542	23.609589	8.304631	-0.130900
32.607723	22.103176	8.492248	0.088600
30.966721	22.158787	9.301133	0.086600
32.782299	22.073860	11.238872	0.074600
30.928577	25.056473	10.758035	0.086600
31.525240	24.310249	12.322242	0.074600
30.325024	23.485340	11.231648	0.088600
14.794127	21.494194	6.225452	0.268500
15.804884	21.114899	7.770846	-0.506300
16.224117	21.631393	5.180909	-0.130900
15.985441	22.040009	8.332065	-0.130900
15.285281	20.428108	8.450363	0.088600
16.816517	20.815914	7.469821	0.086600
14.179502	20.113472	5.843393	0.074600
15.754914	21.485283	4.200140	0.086600
16.950670	20.834538	5.382275	0.074600
16.770424	22.566559	5.355304	0.088600
18.792982	23.882650	11.740340	0.268500
17.512943	24.512749	10.719428	-0.506300
19.860594	22.991444	10.502624	-0.130900
16.972204	23.772251	10.117202	-0.130900
16.839451	25.221773	11.216514	0.088600
17.952286	25.289087	10.080924	0.086600
19.535519	24.980598	12.354156	0.074600
20.801279	23.516273	10.295066	0.086600
19.247952	22.811171	9.610671	0.074600
20.096886	22.040792	10.996421	0.088600
18.784540	16.635838	35.829086	0.268500
19.837606	15.677723	37.038624	-0.506300
20.043802	16.477921	34.520012	-0.130900
19.216425	15.232166	37.825409	-0.130900
20.405588	14.852398	36.591805	0.088600
20.586889	16.312534	37.527496	0.086600
17.671919	15.626198	35.516636	0.074600
20.808741	17.261410	34.586472	0.086600
19.449446	16.439270	33.598789	0.074600
20.457254	15.468376	34.635319	0.088600
17.019497	7.353027	21.098837	0.268500
18.314035	6.050531	21.097517	-0.506300
17.780260	8.466918	19.798697	-0.130900
17.885000	5.274302	21.743132	-0.130900
18.411404	5.593334	20.105097	0.088600
19.240467	6.445731	21.532206	0.086600
15.838807	6.732285	20.415594	0.074600
17.141800	9.281912	19.435995	0.086600
18.027233	7.795896	18.966745	0.074600
18.772549	8.806942	20.119879	0.088600
26.811991	28.025551	24.891375	0.268500
28.312948	28.624969	23.958611	-0.506300
25.811384	27.827789	23.471460	-0.130900
29.051527	28.822884	24.745213	-0.130900
28.652060	27.836800	23.275085	0.088600
28.018789	29.607414	23.569145	0.086600
27.161448	26.663475	25.347242	0.074600
24.964994	28.524956	23.439945	0.086600
25.436033	26.799774	23.395960	0.074600
26.378183	28.072868	22.564772	0.088600
22.228920	8.497097	26.322172	0.268500
21.284681	9.738599	25.392931	-0.506300
20.748466	7.712708	27.077887	-0.130900
20.431540	9.267473	24.889338	-0.130900
20.966856	10.512062	26.102968	0.088600
21.933973	10.201235	24.639406	0.086600
22.678749	7.531724	25.243879	0.074600
20.597336	8.498736	27.828039	0.086600
20.978725	6.724516	27.494860	0.074600
19.918760	7.756138	26.361567	0.088600
12.020930	26.643494	22.167902	0.268500
13.309214	26.041365	21.127371	-0.506300
12.739429	28.256790	22.260500	-0.130900
13.347889	26.403187	20.092485	-0.130900
14.293867	26.283937	21.545729	0.088600
13.122373	24.960617	21.105200	0.086600
10.816103	26.678944	21.267900	0.074600
13.607771	28.098816	22.911985	0.086600
12.084199	29.068563	22.599768	0.074600
12.955074	28.561388	21.228933	0.088600
3.965755	26.095398	11.425511	0.268500
3.823214	27.138205	9.994184	-0.506300
5.735711	25.762712	11.310367	-0.130900
2.941298	27.782265	10.098145	-0.130900
4.728987	27.748747	9.893076	0.088600
3.811948	26.527216	9.083155	0.086600
3.711350	26.996849	12.559229	0.074600
5.900256	25.652397	10.231402	0.086600
5.849971	24.748684	11.712987	0.074600
6.300058	26.557039	11.814317	0.088600
8.958357	5.018587	18.900097	0.268500
8.765268	3.964726	17.416149	-0.506300
10.058129	6.202700	18.130304	-0.130900
8.672489	4.705146	16.612045	-0.130900
9.643370	3.328887	17.248650	0.088600
7.824398	3.410552	17.521332	0.086600
7.660223	5.776977	19.006496	0.074600
10.184128	6.998637	18.874626	0.086600
9.642281	6.476196	17.152718	0.074600
10.894919	5.499429	18.037605	0.088600
25.551779	23.397291	6.261393	0.268500
23.920752	24.108282	5.913126	-0.506300
25.174555	22.752943	7.971617	-0.130900
23.176294	23.327860	6.113440	-0.130900
23.885050	24.896467	6.675295	0.088600
23.843550	24.570171	4.921111	0.086600
25.674967	22.169022	5.407954	0.074600
24.375338	22.009335	7.863413	0.086600
24.846846	23.525318	8.678335	0.074600
26.129576	22.302763	8.269411	0.088600
36.214077	18.221342	21.738096	0.268500
34.393932	18.332573	21.427631	-0.506300
36.278271	16.433634	21.749371	-0.130900
34.139877	18.061419	20.395479	-0.130900
33.867188	17.817316	22.240318	0.088600
34.072098	19.372629	21.562212	0.086600
36.810272	18.614969	20.442419	0.074600
37.320820	16.125866	21.896955	0.086600
35.967865	16.180925	20.728001	0.074600
35.579075	15.988653	22.468063	0.088600
10.812010	6.598166	14.368032	0.268500
9.947936	5.270509	13.388902	-0.506300
12.198526	6.885547	13.287200	-0.130900
9.660527	5.647221	12.399514	-0.130900
10.538321	4.353727	13.269048	0.088600
8.959154	5.095854	13.830742	0.086600
9.957543	7.826856	14.252811	0.074600
12.046777	6.345619	12.344411	0.086600
13.123253	6.444088	13.678869	0.074600
12.262403	7.975758	13.183429	0.088600
16.917675	6.834820	16.582405	0.268500
17.604258	8.400500	15.965511	-0.506300
16.058050	6.213310	15.150985	-0.130900
18.190132	8.244660	15.051246	-0.130900
16.885643	9.172666	15.664242	0.088600
18.290552	8.755057	16.744419	0.086600
18.254530	6.056649	16.651463	0.074600
15.065180	6.675712	15.089267	0.086600
15.906942	5.130085	15.066139	0.074600
16.661964	6.472107	14.272510	0.088600
8.744256	23.827518	11.619098	0.268500
9.785748	24.894512	12.702855	-0.506300
9.060106	24.855940	10.201712	-0.130900
9.484574	25.949356	12.704762	-0.130900
9.724511	24.558275	13.745258	0.088600
10.755192	24.818291	12.195132	0.086600
9.556677	22.572681	11.377994	0.074600
8.799127	25.908211	10.369110	0.086600
8.388385	24.597818	9.373718	0.074600
10.107854	24.795738	9.882329	0.088600
33.200672	11.888760	20.930866	0.268500
32.639729	12.626335	22.530231	-0.506300
32.837490	10.213284	21.578564	-0.130900
31.624678	12.265804	22.737799	-0.130900
33.402714	12.287735	23.242004	0.088600
32.503689	13.709213	22.419411	0.086600
32.002720	12.201302	20.035753	0.074600
33.792217	9.880577	22.004267	0.086600
32.450771	9.699699	20.689693	0.074600
32.074696	10.222954	22.366890	0.088600
30.755825	20.514069	22.393431	0.268500
31.594944	19.544498	23.613771	-0.506300
31.312355	22.130032	22.905516	-0.130900
31.416218	20.050489	24.570555	-0.130900
31.201717	18.520735	23.640062	0.088600
32.666672	19.422863	23.413752	0.086600
31.465969	20.286304	21.078764	0.074600
32.401836	22.053341	23.008303	0.086600
30.836311	22.318132	23.875776	0.074600
31.060816	22.915756	22.182489	0.088600
19.507565	24.155586	6.563317	0.268500
19.217777	25.881721	6.140032	-0.506300
19.661119	23.600502	4.840889	-0.130900
18.230095	26.004612	5.678750	-0.130900
19.355480	26.508034	7.030077	0.088600
19.980778	26.085312	5.378593	0.086600
20.959547	24.150608	7.034166	0.074600
19.962429	22.552002	4.956051	0.086600
20.406130	24.228836	4.337337	0.074600
18.850882	23.763351	4.119497	0.088600
19.246435	28.357126	15.047142	0.268500
20.086218	29.012732	16.482536	-0.506300
20.558249	27.155182	14.619749	-0.130900
20.845243	29.733438	16.154095	-0.130900
19.359777	29.413189	17.200397	0.088600
20.493567	28.126450	16.984514	0.086600
18.092447	27.574221	15.581880	0.074600
20.978380	26.722191	15.535947	0.086600
21.281446	27.788982	14.091833	0.074600
19.966230	26.440706	14.034562	0.088600
31.843658	19.647617	27.196331	0.268500
30.046062	19.247105	26.902906	-0.506300
31.505671	21.103741	28.299545	-0.130900
30.058283	18.249310	26.447220	-0.130900
29.499603	19.187275	27.852228	0.088600
29.638428	20.093014	26.335741	0.086600
32.217438	18.551014	28.155361	0.074600
32.409630	21.719296	28.385408	0.086600
31.118086	20.760029	29.266523	0.074600
30.698208	21.621548	27.767290	0.088600
26.800894	7.217999	11.601089	0.268500
25.828957	5.678455	11.372943	-0.506300
27.320768	6.966877	13.337831	-0.130900
26.230366	4.785511	11.867839	-0.130900
24.861023	5.748348	11.884438	0.088600
25.656885	5.418072	10.321278	0.086600
27.965530	7.187260	10.673565	0.074600
28.211058	6.348652	13.506898	0.086600
26.439606	6.542194	13.834425	0.074600
27.626677	7.966259	13.671091	0.088600