%chk=gaussian_vee_5.0ang.chk
#p tda(nstates=6, root=1) cam-b3lyp/6-31g* nosymm charge EmpiricalDispersion=GD3

Vertical Excitaion Energy Calculations

0 1
N	20.961456	18.605639	24.679466
C	19.508715	18.478384	24.511513
O	21.440451	19.699501	25.027885
O	21.598135	17.656759	24.454678
C	18.969360	17.192446	24.239025
C	18.610460	19.544157	24.729181
C	17.605520	16.981070	24.078108
H	19.542313	16.286663	24.063866
C	17.285547	19.369396	24.539190
N	18.901484	20.875772	24.857616
C	16.742432	18.092514	24.197786
H	17.223433	16.016209	23.758030
N	16.546650	20.488934	24.611240
O	17.543613	21.463606	24.872482
N	15.409689	17.932568	23.947374
H	14.743838	18.677032	24.110340
H	15.072648	16.986160	23.825464
C	19.084835	17.876791	15.823482
C	18.216440	16.832956	15.457412
C	18.581606	19.145424	16.047571
C	16.827187	17.078163	15.314877
H	18.530174	15.816013	15.241087
N	20.376543	17.524883	15.949326
C	17.204453	19.383375	16.057680
O	19.358990	20.186745	16.400257
C	16.324133	18.373144	15.608990
H	16.169285	16.261684	15.032166
C	21.196125	18.527113	16.263105
H	16.908337	20.400915	16.295010
C	20.695782	19.903872	16.486969
N	14.909368	18.709267	15.590669
C	22.654707	18.260336	16.371962
C	21.554167	20.925056	16.721746
C	14.376658	20.032202	15.948103
C	13.927648	17.750683	15.075039
C	23.503407	19.368811	16.683260
C	23.165695	17.029749	16.153788
C	22.997000	20.740145	16.921230
H	21.160494	21.889702	17.020971
C	14.356997	21.005333	14.789221
H	14.969801	20.322107	16.824200
H	13.339230	19.930435	16.289854
C	13.428572	16.784998	16.188690
H	14.435501	17.101862	14.350797
H	13.085035	18.304575	14.643046
C	24.876961	19.093555	16.799765
C	24.538523	16.792292	16.249231
H	22.489252	16.223663	15.885373
O	23.770363	21.644163	17.263462
H	13.973275	21.965347	15.156011
H	13.721149	20.643423	13.971829
H	15.384212	21.196785	14.455181
H	14.252887	16.198641	16.613073
H	12.702986	16.074175	15.774361
H	13.022462	17.467251	16.945669
C	25.449823	17.858246	16.508524
H	25.490005	19.928379	17.126324
H	24.951191	15.810497	16.036673
H	26.527744	17.765366	16.602640
S	26.287872	20.122789	23.495508
C	27.865587	19.535151	23.982180
C	26.236803	21.542501	24.569296
H	27.672642	18.655224	24.608213
H	28.335871	19.320950	23.014524
H	28.516314	20.243731	24.509325
O	26.407545	20.526037	22.023733
H	26.380165	21.245916	25.615664
H	25.196138	21.879400	24.486086
H	26.939217	22.253996	24.117853
S	23.428858	14.858429	19.187376
C	23.839527	13.348869	18.301229
C	21.616976	14.984794	18.566324
H	24.825270	13.050760	18.679193
H	23.141792	12.593430	18.683184
H	23.715487	13.431729	17.214418
O	23.443003	14.529223	20.669859
H	20.900753	14.204130	18.850916
H	21.468870	15.279136	17.519979
H	21.402313	15.931201	19.077833
S	15.945019	11.458904	23.298014
C	17.563717	10.712132	23.668253
C	15.674200	10.631130	21.665691
H	18.300365	11.208134	23.024250
H	17.847641	11.014996	24.683668
H	17.575102	9.615192	23.666498
O	14.936928	10.804111	24.170973
H	16.519648	10.760220	20.978697
H	14.835829	11.035015	21.084814
H	15.462347	9.559589	21.767302
S	22.677702	25.246048	24.435278
C	22.068041	23.669422	23.709814
C	24.069468	24.522652	25.409700
H	22.926754	23.177839	23.236139
H	21.678728	23.105001	24.566130
H	21.333708	23.952438	22.945570
O	23.243677	25.915810	23.244356
H	23.954062	24.065504	26.400206
H	24.838833	25.304348	25.430681
H	24.391207	23.807461	24.642633
S	9.390088	19.566906	15.067461
C	10.062832	20.824406	13.865953
C	10.114477	18.222118	14.149225
H	10.336117	20.291172	12.947042
H	9.277669	21.587307	13.795843
H	11.022980	21.241764	14.193579
O	10.173221	19.731945	16.327650
H	10.124191	18.339886	13.058607
H	9.663202	17.326946	14.594671
H	11.162474	18.201801	14.472795
S	28.518278	13.401375	18.475979
C	28.699415	12.281662	17.105673
C	27.790697	14.776234	17.528521
H	29.457434	12.717617	16.443275
H	29.066378	11.366074	17.585714
H	27.815207	12.071861	16.491209
O	27.419922	12.817581	19.373049
H	26.788528	14.535599	17.152805
H	28.536270	15.054470	16.773462
H	27.603985	15.573929	18.258060
S	12.272004	13.826099	18.918777
C	11.727197	13.592804	17.255373
C	13.667367	12.725292	18.753965
H	12.358079	14.102604	16.516790
H	11.691205	12.512962	17.065489
H	10.714536	13.995522	17.129885
O	12.806046	15.205299	18.998323
H	13.520886	11.660091	18.536478
H	14.371327	12.924782	19.571312
H	14.281381	13.106220	17.928560
S	27.222168	19.074791	11.623926
C	27.682508	20.445583	10.535734
C	28.416149	19.277534	12.945463
H	28.438358	20.309177	9.752478
H	26.762568	20.691460	9.991064
H	27.879457	21.285015	11.213942
O	25.878664	19.623756	12.153765
H	29.322367	18.813049	12.537512
H	28.101597	18.776794	13.869436
H	28.603870	20.332920	13.178553
S	28.986967	19.220589	17.492151
C	28.262630	19.536602	19.013414
C	30.688446	19.929111	17.820608
H	29.010265	19.269871	19.770586
H	27.941378	20.583267	19.081957
H	27.361624	18.938190	19.196428
O	29.269936	17.786777	17.446009
H	30.753304	20.986595	18.105104
H	31.328789	19.766308	16.944899
H	31.211962	19.307663	18.557592
S	16.198202	10.230474	12.333366
C	14.834570	9.022243	12.528087
C	15.705126	11.233215	13.772039
H	14.776218	8.666597	13.564197
H	13.880814	9.392924	12.132674
H	15.158161	8.220762	11.852561
O	17.505844	9.513729	12.645630
H	14.825621	11.830960	13.502628
H	16.447611	12.040466	13.793787
H	15.544334	10.655446	14.690591
S	11.264221	24.652588	17.188864
C	11.439361	22.854317	16.993170
C	13.036506	24.739365	17.643572
H	10.574926	22.352184	16.541483
H	12.281806	22.776371	16.294874
H	11.698947	22.374325	17.944818
O	11.222652	25.302273	15.831083
H	13.175445	25.805958	17.859175
H	13.601433	24.387707	16.771444
H	13.192572	24.149475	18.555208
S	22.227592	18.239695	20.976000
C	23.968180	18.647039	20.623566
C	21.798031	19.763441	21.733971
H	23.969112	19.571167	20.032475
H	24.397608	18.760374	21.626638
H	24.434870	17.821783	20.071705
O	21.638573	18.148375	19.598242
H	22.387075	19.964184	22.637371
H	20.731216	19.700432	21.981657
H	21.798223	20.565378	20.985434
S	24.131399	27.318413	14.759219
C	25.927549	27.611115	15.029060
C	23.840937	26.642307	16.448658
H	26.352770	28.087402	14.137013
H	26.186602	28.397087	15.749159
H	26.462706	26.726517	15.395833
O	23.553335	28.650826	14.742504
H	23.676203	27.545601	17.048922
H	24.676615	26.038891	16.824078
H	22.956751	25.998051	16.367657
S	13.634216	15.015239	22.236977
C	12.392662	13.718988	22.688030
C	12.352570	16.311295	21.990866
H	11.644939	13.641300	21.889103
H	12.988518	12.798461	22.656446
H	11.934589	13.872922	23.672857
O	14.303003	15.435428	23.549290
H	11.740357	16.375238	22.898893
H	11.633330	15.929622	21.255726
H	12.999633	17.152157	21.712172
S	26.126116	14.202841	13.134127
C	24.454203	14.611181	12.828799
C	26.729694	15.920868	13.154688
H	24.031006	15.345109	13.525693
H	24.321285	14.883948	11.774598
H	23.860275	13.709933	13.024802
O	26.147556	13.716342	14.575809
H	26.255316	16.494665	13.960381
H	26.451660	16.383425	12.199624
H	27.825600	15.960536	13.183455
S	21.885551	24.368118	18.547689
C	23.240732	25.047150	19.485069
C	21.073393	23.605146	19.977186
H	23.912615	24.269361	19.868513
H	23.922941	25.584883	18.815113
H	22.907818	25.789097	20.221348
O	21.045300	25.541861	18.193254
H	21.544397	22.624933	20.121250
H	20.017393	23.407928	19.754974
H	21.117123	24.294262	20.829603
S	16.966715	25.536953	29.353409
C	16.325953	24.108608	28.571875
C	17.401232	24.635605	30.858023
H	15.976819	24.573698	27.641710
H	17.201492	23.467724	28.410294
H	15.522527	23.658955	29.168303
O	18.099873	25.848484	28.497314
H	18.009806	25.363119	31.409178
H	17.846489	23.693184	30.515974
H	16.508255	24.339596	31.422274
S	17.047638	15.042033	12.385850
C	18.529108	14.665443	11.370581
C	15.838771	14.015410	11.546119
H	18.176882	14.659635	10.331676
H	19.378717	15.330849	11.567582
H	18.798361	13.620905	11.570209
O	17.224087	14.308909	13.652952
H	16.401491	13.114116	11.273333
H	15.456985	14.625799	10.718427
H	14.967521	13.828649	12.186004
S	18.394178	25.600538	23.749208
C	16.619284	24.961090	23.708590
C	18.886305	25.066427	25.367979
H	16.547625	23.902901	23.988779
H	16.020781	25.500326	24.453192
H	16.191015	25.160706	22.718563
O	19.132799	24.881702	22.719645
H	18.443174	25.760649	26.092619
H	19.963736	24.968365	25.549477
H	18.453478	24.067289	25.501375
S	18.068501	23.204407	15.522038
C	16.922359	24.589640	15.143228
C	19.515915	24.264431	15.692410
H	17.038162	24.918106	14.102983
H	15.876450	24.258841	15.135997
H	16.931471	25.461248	15.809278
O	17.675615	22.869165	16.976027
H	19.192734	25.160234	16.236916
H	19.795111	24.554752	14.672031
H	20.297834	23.728424	16.244413
S	16.799938	14.164513	27.790581
C	16.198919	13.154629	26.502075
C	16.459192	15.789581	27.042883
H	16.373186	12.109051	26.784571
H	15.106636	13.207657	26.415401
H	16.610931	13.318771	25.498720
O	15.733720	13.993141	28.835751
H	15.601880	15.587234	26.389065
H	17.339090	16.138012	26.488098
H	16.245283	16.517811	27.834925
S	12.395327	13.453991	13.253290
C	12.181303	12.695637	11.632985
C	10.867636	14.439770	13.250557
H	11.205456	12.292858	11.334822
H	12.255447	13.543755	10.941170
H	13.040907	12.033245	11.472607
O	12.170465	12.385361	14.268797
H	10.059826	13.703152	13.159744
H	10.842865	15.195629	12.455902
H	10.848211	14.772461	14.295711
S	32.732479	16.240662	14.662329
C	31.225039	16.969151	15.305531
C	32.022892	15.434921	13.202128
H	31.390789	17.538834	16.228243
H	30.822729	17.632912	14.530304
H	30.500784	16.187817	15.567037
O	33.523872	17.361782	14.017254
H	32.859676	15.426743	12.492817
H	31.167410	16.046200	12.889233
H	31.749376	14.446827	13.592335
S	26.190845	21.606228	30.144760
C	27.480814	20.383335	29.816017
C	25.237000	21.466358	28.568153
H	28.291975	20.699528	30.483437
H	26.986786	19.492493	30.223143
H	27.869747	20.360214	28.790535
O	25.197388	21.034962	31.108633
H	24.639643	22.385418	28.524597
H	24.617809	20.561241	28.540361
H	26.027874	21.396523	27.811152
S	17.067827	16.232073	20.656921
C	18.622499	16.895561	19.978403
C	16.117678	16.263424	19.085817
H	19.401621	17.008951	20.742290
H	19.047373	16.183876	19.259796
H	18.461473	17.872011	19.505083
O	17.241079	14.800398	20.991039
H	15.800000	17.292812	18.878832
H	15.323571	15.529599	19.271032
H	16.835291	15.890790	18.344473
S	21.795443	14.707344	28.012424
C	21.524694	15.187637	29.730188
C	20.432291	15.804443	27.356247
H	22.218813	14.675453	30.407885
H	21.566584	16.283802	29.738974
H	20.592314	14.741570	30.097752
O	23.096273	15.378937	27.740555
H	20.640566	15.865067	26.280910
H	20.398043	16.749310	27.912542
H	19.481688	15.289093	27.541082
S	22.356516	17.978649	11.147290
C	22.832727	18.349972	12.900786
C	24.017065	17.885124	10.378128
H	23.260233	17.448196	13.356259
H	23.515333	19.188042	13.088147
H	21.869921	18.578953	13.374052
O	21.832506	16.587475	11.256954
H	24.444323	18.890442	10.277158
H	23.816160	17.697720	9.316090
H	24.692564	17.118305	10.776997
S	13.079020	20.821291	20.590815
C	12.282663	19.431553	19.729971
C	14.544851	19.990973	21.251516
H	13.012350	18.960506	19.059839
H	11.956722	18.623913	20.396971
H	11.445013	19.787756	19.117701
O	13.689959	21.665016	19.536489
H	14.948805	20.570112	22.091055
H	15.239140	19.884918	20.408827
H	14.148659	19.016001	21.561163
S	25.662296	15.616661	22.810560
C	26.181208	13.830776	22.962900
C	24.100782	15.549160	23.741213
H	26.630808	13.642746	23.945711
H	25.209965	13.349777	22.793383
H	26.864031	13.609184	22.133410
O	26.670732	16.437496	23.568792
H	23.762821	16.588345	23.837557
H	24.186436	15.035915	24.706953
H	23.366665	14.973858	23.163706
S	12.807677	24.072849	24.843920
C	13.500507	22.740606	23.645737
C	13.116882	23.330524	26.486403
H	12.677511	22.079384	23.347630
H	13.788728	23.329367	22.766134
H	14.307401	22.178556	24.131971
O	13.681537	25.316885	24.704052
H	12.711192	24.015583	27.241060
H	14.186867	23.176191	26.672745
H	12.587757	22.373417	26.572306
S	25.455286	17.989395	27.488894
C	24.169163	18.377312	26.262575
C	26.004541	16.435913	26.734585
H	24.729818	18.650124	25.359999
H	23.470163	17.534582	26.194643
H	23.569912	19.232412	26.598892
O	26.650484	18.829250	27.159397
H	26.747526	16.682463	25.966084
H	25.082539	15.923218	26.433826
H	26.534008	15.921064	27.545759
S	11.766487	19.115387	24.547077
C	12.178565	17.515888	25.437412
C	11.144133	19.918325	26.042564
H	13.011821	17.640703	26.139912
H	11.271846	17.283331	26.009417
H	12.364268	16.679604	24.752176
O	13.136642	19.732609	24.316010
H	10.825597	20.961519	25.925537
H	11.971889	19.889349	26.761862
H	10.373659	19.342642	26.570168
S	18.755331	19.908028	11.970331
C	18.722288	18.022045	11.859488
C	16.996946	20.092529	12.416792
H	19.769381	17.721756	11.729727
H	18.271788	17.634560	12.781610
H	18.143541	17.804462	10.953325
O	19.417818	20.259823	13.214991
H	16.752489	21.109055	12.748934
H	16.820955	19.325821	13.181379
H	16.316034	19.838058	11.595194
S	20.905760	12.129292	14.821459
C	19.271521	11.727481	14.163694
C	21.115698	13.662135	13.965050
H	19.362757	11.627553	13.075076
H	18.916735	10.751686	14.517757
H	18.674143	12.631237	14.336247
O	20.739569	12.417191	16.338493
H	21.372538	13.674180	12.898606
H	21.793596	14.348414	14.487432
H	20.151236	14.097873	14.253761
S	8.046437	16.204712	17.613245
C	9.634442	16.900166	18.076044
C	8.367009	14.562599	18.433064
H	10.006452	17.471069	17.216339
H	9.468163	17.629997	18.877983
H	10.337502	16.104294	18.351177
O	6.984647	16.951420	18.414936
H	7.456227	14.378345	19.016104
H	9.281533	14.549610	19.038773
H	8.433465	13.826889	17.622065
S	20.939669	20.989166	29.342060
C	20.726835	19.259254	28.742569
C	20.849333	21.702599	27.666519
H	21.607740	18.916115	28.186081
H	20.705980	18.749241	29.713577
H	19.796522	18.949774	28.250486
O	19.652678	21.341074	30.021280
H	20.594431	22.758188	27.821989
H	20.063562	21.223976	27.069117
H	21.791540	21.676823	27.105276
S	27.626587	23.064148	14.872070
C	26.255209	21.965435	14.475583
C	27.075850	23.440327	16.598343
H	26.394667	21.664616	13.429891
H	26.302872	21.114000	15.165653
H	25.378325	22.624493	14.464367
O	28.844284	22.243620	14.813465
H	26.433748	24.329529	16.618963
H	27.892105	23.566978	17.320215
H	26.596701	22.523043	16.962234
S	23.259081	23.555450	12.405028
C	23.764933	22.053448	11.727518
C	22.315054	22.730164	13.746412
H	22.933603	21.414680	11.404596
H	24.327642	22.224609	10.801522
H	24.344625	21.455490	12.441531
O	24.448961	24.201733	12.998056
H	23.042807	22.287224	14.437490
H	21.708693	21.929806	13.304639
H	21.709642	23.476112	14.275990
S	13.983533	21.944555	11.277761
C	13.897757	23.264675	12.534067
C	12.796566	22.657917	10.083078
H	13.949574	24.237988	12.030684
H	12.931486	23.142027	13.038733
H	14.727660	23.214861	13.249743
O	15.344233	22.118340	10.690435
H	11.835893	22.788412	10.596384
H	12.593558	22.039299	9.200182
H	12.994694	23.694714	9.784399
S	25.718000	9.320423	16.155346
C	25.486677	9.452148	17.981865
C	25.305365	10.967640	15.872344
H	25.561428	8.480930	18.486401
H	26.227781	10.131435	18.420891
H	24.521858	9.948582	18.143404
O	27.170818	9.229965	15.861657
H	25.543184	11.700359	16.653357
H	24.227747	11.048038	15.683433
H	25.679066	11.354340	14.916195
S	13.186649	17.315725	10.589458
C	11.939280	18.305311	9.903708
C	14.582029	18.196304	9.819091
H	10.966335	17.870447	10.163861
H	12.033720	19.265892	10.425030
H	12.042150	18.321121	8.811656
O	13.193043	17.710901	12.059772
H	15.580175	17.802454	10.047106
H	14.624193	19.261322	10.078650
H	14.537138	18.149731	8.723999
S	12.563278	28.110378	15.635728
C	14.062698	27.204243	15.055306
C	13.133339	28.561438	17.266718
H	13.656235	26.423243	14.400903
H	14.611603	27.993910	14.527535
H	14.642143	26.740395	15.863082
O	12.638252	29.411243	14.914130
H	12.382751	29.232805	17.701778
H	14.119148	29.041473	17.232765
H	13.301384	27.725611	17.957054
S	18.661764	20.855007	21.239038
C	19.088358	20.543278	19.507750
C	17.261084	22.061077	21.068224
H	18.339848	19.946026	18.972551
H	19.003740	21.550068	19.080412
H	20.083391	20.095882	19.393034
O	18.098055	19.502865	21.577410
H	17.596300	23.097393	20.937521
H	16.667381	22.021313	21.989824
H	16.677828	21.639210	20.240427
S	17.759155	11.566719	17.894798
C	17.495880	13.215473	16.977657
C	18.256083	12.279884	19.523613
H	18.410929	13.663101	16.570568
H	16.740355	12.894650	16.249878
H	16.917032	13.972164	17.521502
O	16.402794	10.951847	17.999624
H	18.971855	13.107914	19.449854
H	18.615374	11.515511	20.223648
H	17.350489	12.680122	19.995968
S	16.097586	26.456196	18.616610
C	17.889944	26.891232	18.891695
C	16.061701	24.961575	19.641989
H	17.786610	27.857567	18.382843
H	18.228474	27.156120	19.900972
H	18.580900	26.152824	18.466553
O	15.416203	27.477592	19.405998
H	16.794716	25.049427	20.453388
H	16.381855	24.147709	18.979765
H	15.017904	24.749729	19.904699
S	28.164389	24.000790	22.031946
C	26.469564	24.588535	22.307093
C	28.058966	23.641850	20.283598
H	26.365095	24.907406	23.351515
H	26.468241	25.551769	21.782129
H	25.696630	23.841560	22.087965
O	28.903341	25.283985	22.133661
H	27.479708	22.714146	20.198568
H	29.110441	23.710690	19.978521
H	27.517954	24.433056	19.750017
S	19.997784	13.142628	24.002663
C	20.366598	14.076935	22.480158
C	21.728539	13.019321	24.538221
H	19.421017	14.420368	22.042738
H	20.948458	14.948761	22.803848
H	20.920752	13.434322	21.784910
O	19.480124	14.139744	25.019823
H	21.719707	12.724838	25.594915
H	22.149939	14.028728	24.454985
H	22.134382	12.205574	23.924614
S	16.215902	20.133717	27.887384
C	14.604126	19.438007	27.378004
C	15.884546	20.127357	29.588743
H	14.529187	19.303150	26.291906
H	14.301485	18.531120	27.915934
H	13.964835	20.287693	27.647738
O	17.243849	19.035622	27.695078
H	15.483397	19.128250	29.799147
H	15.098062	20.852364	29.832083
H	16.787363	20.503132	30.085859

32.765438	15.982499	30.933264	0.268500
33.199760	17.367683	31.956427	-0.506300
34.210243	14.934185	31.241247	-0.130900
34.281578	17.269268	32.109383	-0.130900
33.064911	18.265438	31.340590	0.088600
32.621990	17.462681	32.884094	0.086600
31.603666	15.331414	31.667578	0.074600
35.094471	15.507818	30.937140	0.086600
34.224838	13.939005	30.779936	0.074600
34.123402	14.754253	32.319901	0.088600
33.631618	13.376846	9.880284	0.268500
31.951094	12.873837	10.362632	-0.506300
33.978481	12.067124	8.733607	-0.130900
32.005177	12.148457	11.183791	-0.130900
31.401136	13.773526	10.665145	0.088600
31.303862	12.454706	9.582351	0.086600
33.346996	14.582383	8.969575	0.074600
33.555614	11.111597	9.067613	0.086600
35.038296	11.816991	8.600844	0.074600
33.554028	12.470511	7.805961	0.088600
28.223677	10.388306	12.600788	0.268500
29.695276	9.877121	11.639304	-0.506300
28.972368	11.908947	13.251678	-0.130900
30.519585	9.664490	12.331197	-0.130900
29.433870	8.947254	11.119274	0.088600
29.914007	10.624966	10.867101	0.086600
27.122704	10.909367	11.730013	0.074600
29.654448	12.312130	12.492990	0.086600
29.398846	11.710049	14.242620	0.074600
28.213333	12.669151	13.473849	0.088600
26.440992	35.312473	23.421709	0.268500
27.294813	36.576427	24.402884	-0.506300
27.338905	33.915607	24.079958	-0.130900
28.363958	36.332993	24.369947	-0.130900
27.102400	37.452267	23.770983	0.088600
27.022678	36.743744	25.452337	0.086600
25.105158	35.258152	24.054556	0.074600
28.381344	34.189465	23.875700	0.086600
26.980705	32.974590	23.644533	0.074600
27.128740	33.906616	25.156599	0.088600
22.035641	5.675823	9.430693	0.268500
21.026203	6.538570	8.319883	-0.506300
23.346573	5.531597	8.108458	-0.130900
20.146282	6.854988	8.893507	-0.130900
21.411480	7.421032	7.794302	0.088600
20.655552	5.901142	7.507658	0.086600
22.554462	6.622829	10.480856	0.074600
24.059874	6.356819	8.225180	0.086600
22.915300	5.320179	7.122190	0.074600
23.938950	4.622955	8.272375	0.088600
37.047947	28.140575	7.607029	0.268500
35.399746	28.866407	7.222788	-0.506300
37.448193	27.404106	5.967687	-0.130900
35.058174	29.472303	8.071103	-0.130900
35.600258	29.579208	6.413393	0.088600
34.774002	28.064140	6.812636	0.086600
37.941936	29.301331	7.752744	0.074600
36.664619	26.702181	5.656700	0.086600
38.422031	26.902502	6.026374	0.074600
37.621410	28.173027	5.204689	0.088600
24.821367	2.000389	21.684629	0.268500
25.535910	2.999691	22.916958	-0.506300
23.883421	0.842381	22.794649	-0.130900
25.885473	3.920322	22.433580	-0.130900
24.744169	3.372509	23.578445	0.088600
26.311003	2.447975	23.463087	0.086600
23.887472	2.942413	20.917561	0.074600
23.274809	1.447994	23.477459	0.086600
24.542662	0.209492	23.401501	0.074600
23.197889	0.240234	22.185658	0.088600
32.891270	36.612679	23.180687	0.268500
32.824162	34.951370	22.707432	-0.506300
31.073513	36.799011	23.550398	-0.130900
33.853306	34.612198	22.536463	-0.130900
32.495537	34.349380	23.563599	0.088600
32.345760	34.932053	21.720430	0.086600
33.493641	36.581192	24.566509	0.074600
30.740437	35.995506	24.218861	0.086600
30.535307	36.670250	22.603210	0.074600
30.776918	37.765549	23.976126	0.088600
18.808498	33.101913	13.080061	0.268500
19.435711	31.805807	14.038580	-0.506300
18.872282	32.155670	11.507811	-0.130900
19.416632	32.016197	15.115049	-0.130900
18.821957	30.897619	13.994886	0.088600
20.419916	31.493216	13.668394	0.086600
17.364262	33.192722	13.368120	0.074600
19.726233	32.460354	10.890276	0.086600
17.914120	32.484074	11.086519	0.074600
18.744133	31.100760	11.780115	0.088600
8.042497	23.587898	30.897385	0.268500
9.065129	24.563145	29.740913	-0.506300
6.431863	23.718010	29.997723	-0.130900
8.584310	25.476662	29.369831	-0.130900
10.057115	24.805454	30.141739	0.088600
9.140958	23.882687	28.883801	0.086600
8.416554	22.130905	30.829800	0.074600
5.722936	23.171593	30.631954	0.086600
6.609269	23.267365	29.013416	0.074600
6.108319	24.764763	29.942627	0.088600
2.584419	8.367862	25.213690	0.268500
1.573144	7.605273	23.991045	-0.506300
1.379405	9.436215	25.858768	-0.130900
2.223449	6.900419	23.458412	-0.130900
0.821789	7.015407	24.530426	0.088600
1.062797	8.320820	23.334579	0.086600
2.979239	7.408376	26.299572	0.074600
0.819038	9.999743	25.102570	0.086600
1.929716	10.110318	26.526714	0.074600
0.702813	8.847650	26.490606	0.088600
3.248002	2.673107	1.738485	0.268500
3.515718	4.097240	0.734579	-0.506300
3.029897	1.479397	0.416807	-0.130900
4.105016	3.809574	-0.144838	-0.130900
2.542348	4.539417	0.488730	0.088600
4.198487	4.805592	1.219847	0.086600
1.935796	2.926048	2.377333	0.074600
2.153383	1.807781	-0.155291	0.086600
2.778318	0.502102	0.846930	0.074600
3.943528	1.436318	-0.188860	0.088600
10.498363	8.593090	29.004263	0.268500
9.245375	8.559486	27.796919	-0.506300
10.770757	6.863922	29.451040	-0.130900
9.646111	7.888889	27.026773	-0.130900
8.359690	8.055538	28.203131	0.088600
9.219344	9.626434	27.543215	0.086600
11.757616	8.986275	28.215559	0.074600
11.065482	6.366154	28.518965	0.086600
9.826493	6.429214	29.801474	0.074600
11.615476	6.837669	30.150450	0.088600
1.682184	21.359081	20.593721	0.268500
2.298166	22.445595	19.306452	-0.506300
3.096231	20.246613	20.850786	-0.130900
2.425512	21.854965	18.390837	-0.130900
1.588937	23.259987	19.113668	0.088600
3.218354	22.999359	19.530092	0.086600
1.651696	22.219215	21.750570	0.074600
3.994111	20.874607	20.904097	0.086600
3.122651	19.572746	19.985563	0.074600
2.947057	19.622265	21.740366	0.088600
24.501213	17.029806	0.301592	0.268500
24.527258	15.781169	-0.987828	-0.506300
25.726212	16.206579	1.408450	-0.130900
23.936819	14.896826	-0.718151	-0.130900
24.137350	16.265221	-1.891750	0.088600
25.577076	15.483508	-1.100448	0.086600
25.158773	18.294943	-0.282077	0.074600
25.372501	15.358453	2.007606	0.086600
26.046265	17.022182	2.068575	0.074600
26.555412	15.809846	0.809754	0.088600
18.502653	10.531962	9.795336	0.268500
18.793493	9.373512	8.382174	-0.506300
20.198259	10.158629	10.691217	-0.130900
19.798727	9.552430	7.981059	-0.130900
18.660486	8.337469	8.717333	0.088600
18.114614	9.578466	7.545199	0.086600
18.603876	11.927665	9.243013	0.074600
20.165548	10.294830	11.779234	0.086600
20.889585	10.749221	10.077475	0.074600
20.585428	9.161176	10.449133	0.088600
13.071508	7.292004	3.681364	0.268500
12.358626	6.638458	2.200461	-0.506300
11.488269	8.086788	4.155077	-0.130900
13.117211	5.976185	1.765322	-0.130900
11.441382	6.075615	2.413244	0.088600
12.147519	7.543423	1.617472	0.086600
13.241284	6.122826	4.558028	0.074600
10.689168	7.335251	4.149638	0.086600
11.229713	8.983849	3.579020	0.074600
11.590246	8.348095	5.215609	0.088600
29.188122	20.751583	2.029616	0.268500
27.818640	20.425276	3.070818	-0.506300
28.428608	19.992954	0.502039	-0.130900
27.754383	21.163176	3.880003	-0.130900
26.902546	20.233521	2.498621	0.088600
27.974869	19.427364	3.498804	0.086600
29.264221	22.255474	1.828326	0.074600
27.598211	20.575998	0.085013	0.086600
28.132153	18.943590	0.621863	0.074600
29.172955	19.963821	-0.303262	0.088600
3.735040	2.844692	33.649651	0.268500
5.443789	2.576664	34.053474	-0.506300
4.259313	4.129543	32.409897	-0.130900
5.879643	3.530765	34.374607	-0.130900
5.542306	1.919392	34.926224	0.088600
6.088957	2.274334	33.219353	0.086600
3.395467	1.639850	32.869514	0.074600
5.012513	3.781070	31.692501	0.086600
4.550251	5.034550	32.957378	0.074600
3.407965	4.252254	31.729038	0.088600
23.647150	11.792942	6.705672	0.268500
23.250298	12.358150	5.037481	-0.506300
22.194431	10.711048	6.986309	-0.130900
23.842176	13.237881	4.756113	-0.130900
23.382732	11.489338	4.380954	0.088600
22.230165	12.757824	5.092262	0.086600
24.848251	10.901928	6.664993	0.074600
21.463543	11.022900	6.230029	0.086600
21.858810	10.839787	8.022743	0.074600
22.591166	9.698055	6.845421	0.088600
10.523301	12.004161	6.866095	0.268500
10.040490	12.009617	8.545607	-0.506300
9.758470	10.400792	6.444204	-0.130900
10.527860	12.910676	8.938009	-0.130900
8.958459	11.935445	8.710272	0.088600
10.517381	11.088385	8.902426	0.086600
9.716531	12.994970	6.131941	0.074600
10.243085	9.705413	7.140631	0.086600
10.103475	10.196370	5.423132	0.074600
8.671762	10.478261	6.572561	0.088600
36.209347	1.068386	35.090446	0.268500
37.835144	0.625782	34.449177	-0.506300
35.711693	1.921959	33.580914	-0.130900
37.690582	0.103031	33.495640	-0.130900
38.275475	1.620052	34.304436	0.088600
38.375237	0.036861	35.200756	0.086600
35.445404	-0.220215	35.179539	0.074600
34.619789	1.916962	33.475422	0.086600
36.191227	1.439900	32.720058	0.074600
35.998497	2.978680	33.513847	0.088600
4.799831	27.723940	28.908749	0.268500
3.813507	27.494946	27.445656	-0.506300
3.992271	26.619953	30.196609	-0.130900
4.494381	27.333685	26.600780	-0.130900
3.221519	26.574091	27.516254	0.088600
3.097305	28.317087	27.325047	0.086600
6.096802	27.091877	28.630703	0.074600
4.590050	26.827648	31.092672	0.086600
4.077957	25.577612	29.865566	0.074600
2.933109	26.870667	30.333487	0.088600
8.339944	14.941780	10.868201	0.268500
6.979978	14.543110	9.694089	-0.506300
7.310380	14.906067	12.340480	-0.130900
7.383721	13.872108	8.925871	-0.130900
6.134637	14.102177	10.236660	0.088600
6.735246	15.461269	9.145909	0.086600
9.136228	13.669090	10.985139	0.074600
6.585599	15.688389	12.083442	0.086600
7.932508	15.147404	13.211182	0.074600
6.919286	13.897057	12.520329	0.088600
24.591459	3.425037	28.310089	0.268500
23.710100	5.032040	28.605398	-0.506300
25.618740	3.888508	26.867729	-0.130900
24.314531	5.859035	28.212770	-0.130900
22.778778	5.033329	28.025700	0.088600
23.435661	5.133526	29.662657	0.086600
25.454460	3.388134	29.573296	0.074600
25.014793	3.838726	25.953299	0.086600
26.372337	3.123775	26.642609	0.074600
25.914349	4.937923	26.989176	0.088600
7.992516	35.896370	11.208108	0.268500
6.468483	35.443310	10.235074	-0.506300
7.719279	34.964005	12.778655	-0.130900
5.642436	35.634850	10.931041	-0.130900
6.444950	36.169491	9.413177	0.088600
6.588458	34.453583	9.777415	0.086600
9.263355	35.381172	10.587819	0.074600
6.922929	35.450687	13.355176	0.086600
8.682962	34.957272	13.302743	0.074600
7.429328	33.937847	12.521085	0.088600
4.998817	7.350800	15.047964	0.268500
6.525856	6.651283	15.628574	-0.506300
5.105812	8.948017	15.865272	-0.130900
6.652649	5.783710	14.969285	-0.130900
7.392090	7.314850	15.515733	0.088600
6.392906	6.365383	16.679285	0.086600
5.239151	7.715744	13.601671	0.074600
5.022247	8.825836	16.952238	0.086600
4.391342	9.706329	15.521914	0.074600
6.069260	9.382637	15.571536	0.088600
35.551926	20.933039	24.795979	0.268500
35.816330	21.676907	23.068634	-0.506300
34.440659	22.191740	25.343365	-0.130900
36.233303	22.690163	23.121960	-0.130900
36.507977	21.007359	22.542576	0.088600
34.817657	21.683941	22.614752	0.086600
34.745876	19.684635	24.616449	0.074600
34.892014	23.175928	25.167118	0.086600
34.140591	22.101059	26.394625	0.074600
33.519981	22.173418	24.747187	0.088600
13.525052	7.994918	17.170069	0.268500
12.575471	9.351933	16.448555	-0.506300
12.938252	8.192119	18.865591	-0.130900
12.787744	9.531949	15.387451	-0.130900
11.545728	9.009961	16.610086	0.088600
12.912278	10.219240	17.029720	0.086600
12.926221	6.658055	16.716002	0.074600
11.875779	8.461082	18.912685	0.086600
13.514962	8.928576	19.438694	0.074600
12.974729	7.177256	19.280479	0.088600
7.286830	30.536621	30.964794	0.268500
7.255016	32.107208	30.055485	-0.506300
8.028147	29.647141	29.503538	-0.130900
6.612052	32.009308	29.172073	-0.130900
6.895441	32.884407	30.741106	0.088600
8.265659	32.272064	29.661991	0.086600
8.508809	30.499352	31.881954	0.074600
8.430203	28.648590	29.714867	0.086600
8.697149	30.369110	29.019178	0.074600
7.289575	29.481133	28.709587	0.088600
1.176674	16.424400	33.943375	0.268500
1.285126	17.536110	35.429466	-0.506300
1.686730	14.902126	34.748272	-0.130900
1.350964	18.572998	35.077438	-0.130900
0.464108	17.410793	36.146149	0.088600
2.173988	17.434135	36.064236	0.086600
-0.263466	16.170441	33.831253	0.074600
2.666531	15.046669	35.219978	0.086600
1.646134	14.104321	33.996429	0.074600
1.049748	14.732349	35.625107	0.088600
23.437971	0.917393	4.607824	0.268500
23.236557	2.723621	4.834950	-0.506300
22.961374	0.991741	2.849336	-0.130900
23.797764	3.251057	4.053755	-0.130900
22.185875	3.036163	4.792594	0.088600
23.616133	3.014076	5.822359	0.086600
24.933083	0.567375	4.746718	0.074600
21.936459	1.374970	2.771196	0.086600
23.024960	0.054878	2.282192	0.074600
23.566425	1.701031	2.271213	0.088600
6.022362	8.509758	7.483756	0.268500
7.510418	7.422005	7.489622	-0.506300
6.628183	9.731766	8.742982	-0.130900
8.452084	7.883354	7.167389	-0.130900
7.613169	7.065620	8.522017	0.088600
7.308691	6.609123	6.781151	0.086600
6.064066	9.145103	6.115694	0.074600
7.667070	10.042236	8.576478	0.086600
6.270945	9.528675	9.760107	0.074600
6.074902	10.644978	8.491324	0.088600